Ni   P    H    O    H    O    H    O    H    O    H 
   1.00000000000000     
  11.7365814896693994   0.0000000000000000   0.0000000000000000
  -5.8682907448347201  10.1641777236399005   0.0000000000000000
   0.0000000000000000   0.0000000000000000  21.8470000000000013
Ni   P    H    O    H    O    H    O    H    O    H 
60  32  5  1  2  1  3  1  2  1  2  
Selective dynamics
Direct
  0.1994854716175922  0.0000000000000000  0.0796368952856099 F F F
  0.5002924808172575  0.3720613910522374  0.3047655959813924 T T T
  0.6994854716175924  0.0000000000000000  0.0796368952856099 F F F
  0.6267312915065502  0.6270252103426317  0.3051426143312280 T T T
  0.7978802171007718  0.7988960310958304  0.2306406810370316 T T T
  0.4989831621180606  0.7005046478342468  0.2311019734706014 T T T
  0.8677263807582011  0.5000000000000001  0.0063502276059424 F F F
  0.6322736192418008  0.6322736192418008  0.0063502276059424 F F F
  0.5000000000000006  0.8677263807581931  0.0063502276059424 F F F
  0.5000000000000238  0.6994854716175924  0.0796368952856099 F F F
  0.8005145283824080  0.8005145283824081  0.0796368952856099 F F F
  0.3719508523701315  0.4993078448248587  0.3057573873234797 T T T
  0.2008884506408657  0.4998652230936884  0.2308071012530710 T T T
  0.3005145283824079  0.8005145283824081  0.0796368952856099 F F F
  0.0000000000000230  0.6994854716175924  0.0796368952856099 F F F
  0.8703138789575322  0.0000000000000000  0.1548840244483289 F F F
  0.6296861210424680  0.1296861210424680  0.1548840244483289 F F F
  0.5000000000000001  0.3703138789575251  0.1548840244483289 F F F
  0.4988125214587726  0.8723857416799866  0.3051909107389224 T T T
  0.8703138789575335  0.5000000000000001  0.1548840244483289 F F F
  0.6296861210424681  0.6296861210424681  0.1548840244483289 F F F
  0.5000000000000240  0.8703138789575328  0.1548840244483289 F F F
  0.8698008684266245  0.9992346228136044  0.3045138786723239 T T T
  0.7008386353363341  0.9999677676655014  0.2305658255826425 T T T
  0.0000000000000002  0.8677263807581931  0.0063502276059424 F F F
  0.8005145283824079  0.3005145283824078  0.0796368952856099 F F F
  0.5000000000000009  0.3677263807581996  0.0063502276059424 F F F
  0.6322736192418077  0.1322736192418006  0.0063502276059424 F F F
  0.8677263807581994  0.0000000000000000  0.0063502276059424 F F F
  0.5099882990334046  0.2054524482073018  0.2295038872335494 T T T
  0.7988741642925270  0.2981330501722553  0.2309929893897756 T T T
  0.6274950851524363  0.1272497619166369  0.3057154803130165 T T T
  0.5000000000000002  0.1994854716175923  0.0796368952856099 F F F
  0.1322736192418007  0.6322736192418008  0.0063502276059424 F F F
  0.3677263807582150  0.5000000000000001  0.0063502276059424 F F F
  0.3703138789575249  0.0000000000000000  0.1548840244483289 F F F
  0.1296861210424751  0.1296861210424680  0.1548840244483289 F F F
  0.0000000000000000  0.3703138789575251  0.1548840244483289 F F F
  0.6994854716175931  0.5000000000000001  0.0796368952856099 F F F
  0.1224792957331975  0.1258953808157122  0.3100665832415048 T T T
  0.3722665541921785  0.0006601098247437  0.3045929461824380 T T T
  0.2017028400126057  0.0044732424624553  0.2322424690829760 T T T
  0.3005145283824083  0.3005145283824078  0.0796368952856099 F F F
  0.0000000000000001  0.1994854716175923  0.0796368952856099 F F F
  0.0000000000000079  0.3677263807581996  0.0063502276059424 F F F
  0.1322736192418006  0.1322736192418006  0.0063502276059424 F F F
  0.3677263807581994  0.0000000000000000  0.0063502276059424 F F F
  0.0028141050906132  0.2020191342638440  0.2317978603133029 T T T
  0.9992105035162556  0.3733462349906775  0.3055421817535693 T T T
  0.9999402156610678  0.7011448979399966  0.2304761760991614 T T T
  0.2981622253534570  0.7993670508724877  0.2307094942429257 T T T
  0.1279165697236675  0.6282577211703348  0.3050128989750436 T T T
  0.0000000000000230  0.8703138789575328  0.1548840244483289 F F F
  0.1296861210424681  0.6296861210424681  0.1548840244483289 F F F
  0.3703138789575404  0.5000000000000001  0.1548840244483289 F F F
  0.9981225582794986  0.8704211705795818  0.3043432318221707 T T T
  0.1994854716176076  0.5000000000000001  0.0796368952856099 F F F
  0.7006533121004156  0.4997276476917488  0.2310645680463126 T T T
  0.8728449654446899  0.5002788860416884  0.3052974542187611 T T T
  0.2960066469694572  0.2965050190968742  0.2327313922860759 T T T
  0.8333333350000075  0.6666666650000010  0.0000000000000000 F F F
  0.6666666650000019  0.8333333349999990  0.0000000000000000 F F F
  0.8333333350000075  0.6666666650000010  0.1548840244483289 F F F
  0.4993525758195556  0.4998826097879704  0.2312919457880230 T T T
  0.8318038361185136  0.6651339220483614  0.3093015786570582 T T T
  0.6643601512822034  0.8321187106504826  0.3089830004464744 T T T
  0.5000000000000009  0.5000000000000001  0.0760717089948102 F F F
  0.5000000000000000  0.0000000000000000  0.0760717089948102 F F F
  0.1655738382146014  0.3353725571787437  0.3095700259619897 T T T
  0.3355713937467931  0.1679561853660995  0.3097053335730084 T T T
  0.0001588990707266  0.0008293742157841  0.2316501641737280 T T T
  0.3333333349999992  0.1666666650000011  0.1548840244483289 F F F
  0.1666666650000011  0.3333333349999990  0.0000000000000000 F F F
  0.3333333349999992  0.1666666650000011  0.0000000000000000 F F F
  0.0000000000000000  0.0000000000000000  0.0760717089948102 F F F
  0.1666666650000011  0.3333333349999990  0.1548840244483289 F F F
  0.1665011964595020  0.8341069686538386  0.3089714832036805 T T T
  0.3331760016032605  0.6662018494352965  0.3100422023929572 T T T
  0.6666666650000013  0.3333333349999990  0.1548840244483289 F F F
  0.9999528448493740  0.5001741407652873  0.2312711826249101 T T T
  0.1666666650000011  0.8333333349999990  0.0000000000000000 F F F
  0.3333333350000145  0.6666666650000010  0.0000000000000000 F F F
  0.0000000000000080  0.5000000000000001  0.0760717089948102 F F F
  0.1666666650000011  0.8333333349999990  0.1548840244483289 F F F
  0.6666666650000019  0.8333333349999990  0.1548840244483289 F F F
  0.6678514901610143  0.3337988902053226  0.3098418761749067 T T T
  0.8332073836230600  0.1673808261812238  0.3100484933368460 T T T
  0.5007062903129837  0.0004811723649033  0.2312464203004483 T T T
  0.8333333349999990  0.1666666650000011  0.1548840244483289 F F F
  0.6666666650000013  0.3333333349999990  0.0000000000000000 F F F
  0.8333333349999990  0.1666666650000011  0.0000000000000000 F F F
  0.3333333350000145  0.6666666650000010  0.1548840244483289 F F F
  0.0006694662963816  0.5014711986775066  0.3502498905325044 T T T
  0.4999787751269699  0.0015810778772161  0.3500859298434069 T T T
  0.9922985785298748  0.9958363867721933  0.3499856395577989 T T T
  0.4984735969209039  0.4978013736032610  0.3500165710038444 T T T
  0.2302822439143897  0.1458217662718113  0.3618598718570057 T T T
  0.0860312876665784  0.1875544627340212  0.4660169256880087 T T T
  0.1017717732984238  0.1956616372508214  0.4212278795135079 T T T
  0.9846168939981181  0.1706854637480688  0.4756825800781148 T T T
  0.1077657563038254  0.0021024234777458  0.5073881551980891 T T T
  0.0248246893264338  0.9340711427261364  0.5248691650681142 T T T
  0.1342303773701397  0.9586170005514593  0.4770847701611829 T T T
  0.0942423183174004  0.1046191315010026  0.4823614528057316 T T T
  0.8675120673619412  0.1514078095910736  0.4918074934435283 T T T
  0.8541135320847371  0.2235171772453413  0.4787734649324995 T T T
  0.7961011802628762  0.0702510451685760  0.4744331365478845 T T T
  0.2716358226337714  0.4080376530874304  0.5478444295585768 T T T
  0.3334462905674774  0.4828086674146996  0.5232584351573726 T T T
  0.2154638252484534  0.3417882571716371  0.5177770824352040 T T T
