Ni   P    H    O    H    O    H    O    H    O    H 
   1.00000000000000     
  11.7365814896693994   0.0000000000000000   0.0000000000000000
  -5.8682907448347201  10.1641777236399005   0.0000000000000000
   0.0000000000000000   0.0000000000000000  21.8470000000000013
Ni   P    H    O    H    O    H    O    H    O    H 
60  32  4  1  2  1  3  1  2  1  2  
Selective dynamics
Direct
  0.1994854716175922  0.0000000000000000  0.0796368952856099 F F F
  0.5000149637832718  0.3679023252742664  0.3100997675887662 T T T
  0.6994854716175922  0.0000000000000000  0.0796368952856099 F F F
  0.6348836732345683  0.6348854081662401  0.3008597280950117 T T T
  0.8025081371276290  0.8019944247690775  0.2289512765013249 T T T
  0.5002618137006152  0.7016512491939174  0.2314264958260574 T T T
  0.8677263807581995  0.5000000000000001  0.0063502276059424 F F F
  0.6322736192418006  0.6322736192418007  0.0063502276059424 F F F
  0.5000000000000001  0.8677263807581928  0.0063502276059424 F F F
  0.5000000000000355  0.6994854716175926  0.0796368952856099 F F F
  0.8005145283824079  0.8005145283824081  0.0796368952856099 F F F
  0.3635208543644354  0.5001153245977438  0.3001199176088732 T T T
  0.1966378858504219  0.4991539877123577  0.2287096552802625 T T T
  0.3005145283824079  0.8005145283824081  0.0796368952856099 F F F
  0.0000000000000285  0.6994854716175926  0.0796368952856099 F F F
  0.8703138789575320  0.0000000000000000  0.1548840244483287 F F F
  0.6296861210424680  0.1296861210424680  0.1548840244483287 F F F
  0.5000000000000000  0.3703138789575250  0.1548840244483287 F F F
  0.4998157669535842  0.8718806687313402  0.3056356973750399 T T T
  0.8703138789575320  0.5000000000000001  0.1548840244483287 F F F
  0.6296861210424680  0.6296861210424683  0.1548840244483287 F F F
  0.5000000000000356  0.8703138789575324  0.1548840244483287 F F F
  0.8737274096478305  0.0013096628886852  0.3052365498681950 T T T
  0.7005852534323070  0.9982135335654052  0.2308541443500524 T T T
  0.0000000000000001  0.8677263807581928  0.0063502276059424 F F F
  0.8005145283824078  0.3005145283824078  0.0796368952856099 F F F
  0.5000000000000000  0.3677263807581996  0.0063502276059424 F F F
  0.6322736192418077  0.1322736192418006  0.0063502276059424 F F F
  0.8677263807581994  0.0000000000000000  0.0063502276059424 F F F
  0.5003177241481385  0.2024911392009505  0.2321996953647523 T T T
  0.7989176006130735  0.2982242306185731  0.2305997223016479 T T T
  0.6274779945757445  0.1249440413324306  0.3054544924026310 T T T
  0.5000000000000000  0.1994854716175923  0.0796368952856099 F F F
  0.1322736192418006  0.6322736192418007  0.0063502276059424 F F F
  0.3677263807582208  0.5000000000000001  0.0063502276059424 F F F
  0.3703138789575248  0.0000000000000000  0.1548840244483287 F F F
  0.1296861210424751  0.1296861210424680  0.1548840244483287 F F F
  0.0000000000000001  0.3703138789575250  0.1548840244483287 F F F
  0.6994854716175922  0.5000000000000001  0.0796368952856099 F F F
  0.1269225892948172  0.1268464758399048  0.3059263718901343 T T T
  0.3722315152993557  0.9974959585958677  0.3052589775228552 T T T
  0.2009253586452011  0.9996928971297718  0.2305829239611738 T T T
  0.3005145283824078  0.3005145283824078  0.0796368952856099 F F F
  0.0000000000000000  0.1994854716175923  0.0796368952856099 F F F
  0.0000000000000000  0.3677263807581996  0.0063502276059424 F F F
  0.1322736192418006  0.1322736192418006  0.0063502276059424 F F F
  0.3677263807581994  0.0000000000000000  0.0063502276059424 F F F
  0.0018497595442593  0.2026838772294504  0.2309928988143808 T T T
  0.9984719642109798  0.3724806895536020  0.3055023094261547 T T T
  0.9976275367338223  0.7006248032128481  0.2307539292412557 T T T
  0.2991783998480576  0.7977402748492266  0.2307514641526559 T T T
  0.1256476972515433  0.6275461486347031  0.3050544704393550 T T T
  0.0000000000000286  0.8703138789575324  0.1548840244483287 F F F
  0.1296861210424680  0.6296861210424683  0.1548840244483287 F F F
  0.3703138789575392  0.5000000000000001  0.1548840244483287 F F F
  0.0008699757317604  0.8734267998781865  0.3053350801786033 T T T
  0.1994854716176065  0.5000000000000001  0.0796368952856099 F F F
  0.6971722276866199  0.4927976381029540  0.2324188982408921 T T T
  0.8725686614865164  0.4998281235983171  0.3054834568129909 T T T
  0.3021145201597458  0.2952177903294979  0.2325004985179875 T T T
  0.8333333350000061  0.6666666650000012  0.0000000000000000 F F F
  0.6666666650000010  0.8333333349999990  0.0000000000000000 F F F
  0.8333333350000061  0.6666666650000012  0.1548840244483287 F F F
  0.4997372053681282  0.4972064234328524  0.2335605854797661 T T T
  0.8360371611436382  0.6676752300205204  0.3091109960126570 T T T
  0.6684440383249620  0.8362297140305804  0.3083221666427949 T T T
  0.5000000000000000  0.5000000000000001  0.0760717089948102 F F F
  0.5000000000000000  0.0000000000000000  0.0760717089948102 F F F
  0.1629331564926138  0.3310596199519102  0.3090404572160385 T T T
  0.3293873376250972  0.1593808438237869  0.3081004360986284 T T T
  0.0007679722568791  0.0007129930729105  0.2312947988642610 T T T
  0.3333333349999990  0.1666666650000011  0.1548840244483287 F F F
  0.1666666650000010  0.3333333349999991  0.0000000000000000 F F F
  0.3333333349999990  0.1666666650000011  0.0000000000000000 F F F
  0.0000000000000000  0.0000000000000000  0.0760717089948102 F F F
  0.1666666650000010  0.3333333349999991  0.1548840244483287 F F F
  0.1662170526598896  0.8330136759017767  0.3100894841324939 T T T
  0.3308795065066266  0.6681652062299234  0.3082064388575953 T T T
  0.6666666650000010  0.3333333349999991  0.1548840244483287 F F F
  0.9989544968674197  0.4996499075269807  0.2311775471943804 T T T
  0.1666666650000011  0.8333333349999990  0.0000000000000000 F F F
  0.3333333350000203  0.6666666650000012  0.0000000000000000 F F F
  0.0000000000000001  0.5000000000000001  0.0760717089948102 F F F
  0.1666666650000011  0.8333333349999990  0.1548840244483287 F F F
  0.6666666650000010  0.8333333349999990  0.1548840244483287 F F F
  0.6705356939371033  0.3298019401687391  0.3079708570590699 T T T
  0.8334233915579805  0.1664382644356148  0.3103315046702146 T T T
  0.5000553204760841  0.9990886717773662  0.2312559235171052 T T T
  0.8333333349999988  0.1666666650000011  0.1548840244483287 F F F
  0.6666666650000010  0.3333333349999991  0.0000000000000000 F F F
  0.8333333349999988  0.1666666650000011  0.0000000000000000 F F F
  0.3333333350000203  0.6666666650000012  0.1548840244483287 F F F
  0.0001013658707621  0.5005151334316821  0.3503361893163338 T T T
  0.4994043190932703  0.9985917627861398  0.3504737386538123 T T T
  0.9985153699228456  0.9987465613977979  0.3505045207932810 T T T
  0.5148252922733082  0.4463540607709301  0.3745977926979833 T T T
  0.3894902522531398  0.2401938954779907  0.4795891203498929 T T T
  0.4822269659117064  0.3654364315093064  0.3848252297175735 T T T
  0.2980441179748674  0.2178489874605478  0.4898522176011869 T T T
  0.4165324029877824  0.0276337522424486  0.5115579893567672 T T T
  0.3946613365639656  0.0045645962734381  0.5544989285434968 T T T
  0.3591962332632564  0.9476428979063615  0.4888433369760509 T T T
  0.3954471730557106  0.1610755120265274  0.4906133964070185 T T T
  0.1404586233551314  0.1852784846190861  0.5131309805219242 T T T
  0.1203037082397806  0.2517824793034013  0.4987286708022676 T T T
  0.0696528983078870  0.1018735687251318  0.4977175413031645 T T T
  0.5591900953178992  0.4490279525018165  0.5494758030317045 T T T
  0.6224709118204728  0.5134364734978524  0.5211149928130104 T T T
  0.4981238785002217  0.3729593948708109  0.5233119778591477 T T T
