Ni   P    H    O    H    O    H    O    H    O    H 
   1.00000000000000     
  11.7365814896693994   0.0000000000000000   0.0000000000000000
  -5.8682907448347201  10.1641777236399005   0.0000000000000000
   0.0000000000000000   0.0000000000000000  21.8470000000000013
Ni   P    H    O    H    O    H    O    H    O    H 
60  32  5  1  1  1  3  1  2  1  2  
Selective dynamics
Direct
  0.1994854716175922  0.0000000000000000  0.0796368952856099 F F F
  0.5000255427318372  0.3714537204611771  0.3041805561827312 T T T
  0.6994854716175924  0.0000000000000000  0.0796368952856099 F F F
  0.6268209067612406  0.6268541791171944  0.3051957109366726 T T T
  0.7976061017604158  0.7985117301167535  0.2305868291727714 T T T
  0.4992744382928396  0.7008663029434099  0.2309560106122144 T T T
  0.8677263807581999  0.5000000000000001  0.0063502276059424 F F F
  0.6322736192418008  0.6322736192418008  0.0063502276059424 F F F
  0.5000000000000004  0.8677263807581930  0.0063502276059424 F F F
  0.5000000000000357  0.6994854716175924  0.0796368952856099 F F F
  0.8005145283824080  0.8005145283824081  0.0796368952856099 F F F
  0.3722098384495744  0.4992897509263486  0.3053238144802780 T T T
  0.2010304504802913  0.4998627389271330  0.2305582294108496 T T T
  0.3005145283824079  0.8005145283824081  0.0796368952856099 F F F
  0.0000000000000215  0.6994854716175924  0.0796368952856099 F F F
  0.8703138789575322  0.0000000000000000  0.1548840244483288 F F F
  0.6296861210424680  0.1296861210424680  0.1548840244483288 F F F
  0.5000000000000001  0.3703138789575251  0.1548840244483288 F F F
  0.4986464088831374  0.8725288189884548  0.3052009853373330 T T T
  0.8703138789575323  0.5000000000000001  0.1548840244483288 F F F
  0.6296861210424681  0.6296861210424681  0.1548840244483288 F F F
  0.5000000000000430  0.8703138789575326  0.1548840244483288 F F F
  0.8697840496938913  0.9990431710242184  0.3047649512766097 T T T
  0.7010484621387146  0.0000883222214603  0.2305216606192533 T T T
  0.0000000000000002  0.8677263807581930  0.0063502276059424 F F F
  0.8005145283824079  0.3005145283824078  0.0796368952856099 F F F
  0.5000000000000002  0.3677263807581996  0.0063502276059424 F F F
  0.6322736192418077  0.1322736192418006  0.0063502276059424 F F F
  0.8677263807581994  0.0000000000000000  0.0063502276059424 F F F
  0.5100269351071154  0.2057335910567416  0.2291955986332605 T T T
  0.7987501929021732  0.2981059207243024  0.2308279598448466 T T T
  0.6274659975866953  0.1273519041603452  0.3056185428826720 T T T
  0.5000000000000002  0.1994854716175923  0.0796368952856099 F F F
  0.1322736192418007  0.6322736192418008  0.0063502276059424 F F F
  0.3677263807582209  0.5000000000000001  0.0063502276059424 F F F
  0.3703138789575249  0.0000000000000000  0.1548840244483288 F F F
  0.1296861210424751  0.1296861210424680  0.1548840244483288 F F F
  0.0000000000000001  0.3703138789575251  0.1548840244483288 F F F
  0.6994854716175926  0.5000000000000001  0.0796368952856099 F F F
  0.1226831343866061  0.1257243267246813  0.3086565972703849 T T T
  0.3720726918811804  0.0013148179746999  0.3043904406779004 T T T
  0.2013427390599485  0.0030650887608878  0.2317162448538581 T T T
  0.3005145283824079  0.3005145283824078  0.0796368952856099 F F F
  0.0000000000000001  0.1994854716175923  0.0796368952856099 F F F
  0.0000000000000143  0.3677263807581996  0.0063502276059424 F F F
  0.1322736192418006  0.1322736192418006  0.0063502276059424 F F F
  0.3677263807581994  0.0000000000000000  0.0063502276059424 F F F
  0.0016623391070139  0.2016635626555594  0.2313789795109630 T T T
  0.9995332244260297  0.3730229909038970  0.3052403205319068 T T T
  0.9998798810853907  0.7014656016822221  0.2305280916849498 T T T
  0.2981027508630693  0.7992319165694859  0.2306085754170745 T T T
  0.1280853859248445  0.6284280677071892  0.3049150095896132 T T T
  0.0000000000000216  0.8703138789575326  0.1548840244483288 F F F
  0.1296861210424681  0.6296861210424681  0.1548840244483288 F F F
  0.3703138789575464  0.5000000000000001  0.1548840244483288 F F F
  0.9979230739098189  0.8707006731879415  0.3045915020325050 T T T
  0.1994854716176066  0.5000000000000001  0.0796368952856099 F F F
  0.7011424833568111  0.4998644506609274  0.2309323381273094 T T T
  0.8731678188631242  0.5002458835786091  0.3053543036639305 T T T
  0.2961453436549424  0.2966249462528863  0.2322123419798677 T T T
  0.8333333350000065  0.6666666650000010  0.0000000000000000 F F F
  0.6666666650000015  0.8333333349999990  0.0000000000000000 F F F
  0.8333333350000065  0.6666666650000010  0.1548840244483288 F F F
  0.4997709598921903  0.5000571483480292  0.2312216595666061 T T T
  0.8321923163607865  0.6651911367563375  0.3090543660302168 T T T
  0.6641538597182826  0.8321021897518615  0.3084122087516343 T T T
  0.5000000000000003  0.5000000000000001  0.0760717089948102 F F F
  0.5000000000000000  0.0000000000000000  0.0760717089948102 F F F
  0.1659404094034716  0.3349397571698154  0.3083624485951185 T T T
  0.3326822921200701  0.1674950015774124  0.3101634530270614 T T T
  0.9997225964378567  0.0004138651132585  0.2316663869198512 T T T
  0.3333333349999992  0.1666666650000011  0.1548840244483288 F F F
  0.1666666650000011  0.3333333349999990  0.0000000000000000 F F F
  0.3333333349999992  0.1666666650000011  0.0000000000000000 F F F
  0.0000000000000000  0.0000000000000000  0.0760717089948102 F F F
  0.1666666650000011  0.3333333349999990  0.1548840244483288 F F F
  0.1665048096357019  0.8344355793994933  0.3088420282714313 T T T
  0.3332838183511311  0.6661390361395088  0.3095510465441630 T T T
  0.6666666650000013  0.3333333349999990  0.1548840244483288 F F F
  0.0000388748926967  0.5002861530862924  0.2313419690182430 T T T
  0.1666666650000011  0.8333333349999990  0.0000000000000000 F F F
  0.3333333350000205  0.6666666650000010  0.0000000000000000 F F F
  0.0000000000000143  0.5000000000000001  0.0760717089948102 F F F
  0.1666666650000011  0.8333333349999990  0.1548840244483288 F F F
  0.6666666650000015  0.8333333349999990  0.1548840244483288 F F F
  0.6678818938035210  0.3338963818195250  0.3091279708610862 T T T
  0.8330746357996640  0.1671622130020280  0.3098044706598456 T T T
  0.5005374616871076  0.0005349132907066  0.2313225003072361 T T T
  0.8333333349999990  0.1666666650000011  0.1548840244483288 F F F
  0.6666666650000013  0.3333333349999990  0.0000000000000000 F F F
  0.8333333349999990  0.1666666650000011  0.0000000000000000 F F F
  0.3333333350000205  0.6666666650000010  0.1548840244483288 F F F
  0.0012342178894153  0.5013263668390922  0.3500218318478206 T T T
  0.4994813334086984  0.0019540232419873  0.3497850498451954 T T T
  0.9938682395753832  0.9967318164956411  0.3499604973257330 T T T
  0.4976077295216988  0.4966909345264886  0.3496275197848989 T T T
  0.2342516512288820  0.1489457823722866  0.3636747160059476 T T T
  0.2566860965439456  0.1670176503610559  0.4615974782778894 T T T
  0.3427804659351046  0.1719368888631851  0.4691026348894795 T T T
  0.2936166288366259  0.4091519314743328  0.4931602448764641 T T T
  0.3763615020440467  0.4599104712706495  0.5151222321170253 T T T
  0.2937388303409401  0.4681072199159971  0.4617988722677218 T T T
  0.2713038070839693  0.2563335783807139  0.4711520921155530 T T T
  0.4912616357564547  0.1796854992913237  0.4868169782601688 T T T
  0.4982349614635219  0.1035679585876464  0.4746899419086174 T T T
  0.5690528140173440  0.2560030445452441  0.4702884253093578 T T T
  0.0607234835723754  0.9727690380353904  0.5303850286592512 T T T
  0.9983238875355839  0.9093893865100138  0.5013976858451316 T T T
  0.1308970343606358  0.0427472489394478  0.5046613384817287 T T T
