Ni   P    H    O    H    O    H    O    H    O    H 
   1.00000000000000     
  11.7365814896693994   0.0000000000000000   0.0000000000000000
  -5.8682907448347201  10.1641777236399005   0.0000000000000000
   0.0000000000000000   0.0000000000000000  21.8470000000000013
Ni   P    H    O    H    O    H    O    H    O    H 
60  32  5  1  2  1  3  1  2  1  2  
Selective dynamics
Direct
  0.1994854716175922  0.0000000000000000  0.0796368952856099 F F F
  0.5000160635466661  0.3632785032994207  0.2998758398027020 T T T
  0.6994854716175922  0.0000000000000000  0.0796368952856099 F F F
  0.6347555863407192  0.6353963758043802  0.3012176103073947 T T T
  0.8014360640915027  0.8025427143368388  0.2287910825965732 T T T
  0.4986478958986787  0.7014887857738213  0.2324231812791132 T T T
  0.8677263807581995  0.5000000000000001  0.0063502276059424 F F F
  0.6322736192418006  0.6322736192418007  0.0063502276059424 F F F
  0.5000000000000001  0.8677263807581929  0.0063502276059424 F F F
  0.5000000000000355  0.6994854716175928  0.0796368952856099 F F F
  0.8005145283824079  0.8005145283824081  0.0796368952856099 F F F
  0.3644211129386636  0.4997653811738148  0.3016816626908691 T T T
  0.1965437842816518  0.4992604025836688  0.2288312472295998 T T T
  0.3005145283824079  0.8005145283824081  0.0796368952856099 F F F
  0.0000000000000286  0.6994854716175928  0.0796368952856099 F F F
  0.8703138789575320  0.0000000000000000  0.1548840244483287 F F F
  0.6296861210424680  0.1296861210424680  0.1548840244483287 F F F
  0.5000000000000000  0.3703138789575252  0.1548840244483287 F F F
  0.4980293537360954  0.8732028585198989  0.3064868720435415 T T T
  0.8703138789575320  0.5000000000000001  0.1548840244483287 F F F
  0.6296861210424680  0.6296861210424683  0.1548840244483287 F F F
  0.5000000000000356  0.8703138789575325  0.1548840244483287 F F F
  0.8702873048938130  0.0001802909721666  0.3046128411280989 T T T
  0.6996066814302502  0.9978620398231802  0.2306608702112625 T T T
  0.0000000000000001  0.8677263807581929  0.0063502276059424 F F F
  0.8005145283824078  0.3005145283824078  0.0796368952856099 F F F
  0.5000000000000000  0.3677263807581997  0.0063502276059424 F F F
  0.6322736192418077  0.1322736192418006  0.0063502276059424 F F F
  0.8677263807581994  0.0000000000000000  0.0063502276059424 F F F
  0.5092553588933748  0.2013696358310738  0.2271317351966838 T T T
  0.7978590868148310  0.2988318397263634  0.2309425223678731 T T T
  0.6271561281322038  0.1260038778922474  0.3056454048100045 T T T
  0.5000000000000000  0.1994854716175923  0.0796368952856099 F F F
  0.1322736192418006  0.6322736192418007  0.0063502276059424 F F F
  0.3677263807582209  0.5000000000000001  0.0063502276059424 F F F
  0.3703138789575248  0.0000000000000000  0.1548840244483287 F F F
  0.1296861210424751  0.1296861210424680  0.1548840244483287 F F F
  0.0000000000000001  0.3703138789575252  0.1548840244483287 F F F
  0.6994854716175922  0.5000000000000001  0.0796368952856099 F F F
  0.1208060378291387  0.1245669148016351  0.3099249637229721 T T T
  0.3716868628886166  0.0000091656064756  0.3046338637011118 T T T
  0.2022423797615630  0.0052709339745536  0.2320426021506032 T T T
  0.3005145283824078  0.3005145283824078  0.0796368952856099 F F F
 -0.0000000000000000  0.1994854716175923  0.0796368952856099 F F F
  0.0000000000000000  0.3677263807581997  0.0063502276059424 F F F
  0.1322736192418006  0.1322736192418006  0.0063502276059424 F F F
  0.3677263807581994  0.0000000000000000  0.0063502276059424 F F F
  0.0034573313220224  0.2026538967411317  0.2314424546273108 T T T
  0.9978588696153240  0.3728944413379516  0.3054920347795817 T T T
  0.9977062668661411  0.7003126434637004  0.2306265214639386 T T T
  0.2986902568172175  0.7984952765236752  0.2308635050099872 T T T
  0.1262649428058065  0.6284288626605697  0.3050624929595604 T T T
  0.0000000000000286  0.8703138789575325  0.1548840244483287 F F F
  0.1296861210424680  0.6296861210424683  0.1548840244483287 F F F
  0.3703138789575393  0.5000000000000001  0.1548840244483287 F F F
  0.9988190712702882  0.8716093251750463  0.3044997520892465 T T T
  0.1994854716176066  0.5000000000000001  0.0796368952856099 F F F
  0.7016661772371682  0.4999581426141989  0.2323026240093612 T T T
  0.8731403064617819  0.4998840964479526  0.3064138702902731 T T T
  0.2948767381984535  0.2960140542362857  0.2340404451196180 T T T
  0.8333333350000061  0.6666666650000012  0.0000000000000000 F F F
  0.6666666650000010  0.8333333349999990  0.0000000000000000 F F F
  0.8333333350000061  0.6666666650000012  0.1548840244483287 F F F
  0.4994592119315326  0.5001260769639497  0.2333148210991456 T T T
  0.8353045327001627  0.6665640592829112  0.3087029877343794 T T T
  0.6649294848969720  0.8356236065749382  0.3085188068227448 T T T
  0.5000000000000000  0.5000000000000001  0.0760717089948102 F F F
  0.5000000000000000  0.0000000000000000  0.0760717089948102 F F F
  0.1621061465466909  0.3330042918809487  0.3082687260023598 T T T
  0.3308569919942549  0.1642069697812270  0.3104753334180639 T T T
  0.0005995993936518  0.0014560115413300  0.2315848498527715 T T T
  0.3333333349999990  0.1666666650000011  0.1548840244483287 F F F
  0.1666666650000010  0.3333333349999991  0.0000000000000000 F F F
  0.3333333349999990  0.1666666650000011  0.0000000000000000 F F F
  0.0000000000000000  0.0000000000000000  0.0760717089948102 F F F
  0.1666666650000010  0.3333333349999991  0.1548840244483287 F F F
  0.1662203863284751  0.8345114210483564  0.3092191737579858 T T T
  0.3310681716989158  0.6680472179646771  0.3092573292671630 T T T
  0.6666666650000010  0.3333333349999991  0.1548840244483287 F F F
  0.9987461886201191  0.5001250431221570  0.2313623444249975 T T T
  0.1666666650000011  0.8333333349999990  0.0000000000000000 F F F
  0.3333333350000203  0.6666666650000012  0.0000000000000000 F F F
  0.0000000000000002  0.5000000000000001  0.0760717089948102 F F F
  0.1666666650000011  0.8333333349999990  0.1548840244483287 F F F
  0.6666666650000010  0.8333333349999990  0.1548840244483287 F F F
  0.6691642050903973  0.3318207257149788  0.3089008269593194 T T T
  0.8327639195954178  0.1671531223085425  0.3102263359666123 T T T
  0.5001499033906485  0.9993140035576219  0.2313258038662610 T T T
  0.8333333349999988  0.1666666650000011  0.1548840244483287 F F F
  0.6666666650000010  0.3333333349999991  0.0000000000000000 F F F
  0.8333333349999988  0.1666666650000011  0.0000000000000000 F F F
  0.3333333350000203  0.6666666650000012  0.1548840244483287 F F F
  0.0009215126753905  0.5013386584889831  0.3506458072715002 T T T
  0.4992433947850841  0.0022489816136907  0.3505318179511438 T T T
  0.9921412561003194  0.9961346646510748  0.3504347876737849 T T T
  0.3546729663174227  0.4949041587674866  0.4508398313699198 T T T
  0.2315805158037436  0.1452973722846438  0.3629434565127457 T T T
  0.3864444518473877  0.2296683583866939  0.4853926342106025 T T T
  0.3678743143693468  0.4394023742548911  0.4564941988057330 T T T
  0.2948361262639911  0.2068715361112290  0.4951772421905198 T T T
  0.4176253133705120  0.0179601918289961  0.5120373722977255 T T T
  0.3983945493153077  0.9937064821657396  0.5550181748892917 T T T
  0.3584489141213957  0.9387749413688261  0.4892405423138270 T T T
  0.3926033154814577  0.1501063471420276  0.4950214684124885 T T T
  0.1345211724392523  0.1746632636469083  0.5142006635421844 T T T
  0.1162045855556087  0.2429532692128558  0.5006247888712217 T T T
  0.0653773941080768  0.0932737106583967  0.4963077634283735 T T T
  0.5706032286651082  0.4381615839572369  0.5511335607190453 T T T
  0.6149172956944159  0.5097979839250604  0.5219920445792752 T T T
  0.5026871002054001  0.3629789098793234  0.5266051873529995 T T T
