Ni   P    H    O    H    O    H    O    H    O    H 
   1.00000000000000     
  11.7365814896693994   0.0000000000000000   0.0000000000000000
  -5.8682907448347201  10.1641777236399005   0.0000000000000000
   0.0000000000000000   0.0000000000000000  21.8470000000000013
Ni   P    H    O    H    O    H    O    H    O    H 
60  32  5  1  1  1  3  1  2  1  2  
Selective dynamics
Direct
  0.1994854716175922  0.0000000000000000  0.0796368952856099 F F F
  0.5028523378488101  0.3771557364257558  0.3087169776228350 T T T
  0.6994854716175924  0.0000000000000000  0.0796368952856099 F F F
  0.6291893895708263  0.6301377250748784  0.3047550011566649 T T T
  0.7990097255844422  0.7989118193525352  0.2305672161686532 T T T
  0.5009938501960097  0.7024685335295466  0.2306134920347339 T T T
  0.8677263807581996  0.5000000000000001  0.0063502276059424 F F F
  0.6322736192418008  0.6322736192418008  0.0063502276059424 F F F
  0.5000000000000002  0.8677263807581926  0.0063502276059424 F F F
  0.5000000000000639  0.6994854716175924  0.0796368952856099 F F F
  0.8005145283824080  0.8005145283824081  0.0796368952856099 F F F
  0.3726704521722399  0.5020023221928493  0.3044928822012375 T T T
  0.2015029490473696  0.5000914719344332  0.2305443188956975 T T T
  0.3005145283824079  0.8005145283824081  0.0796368952856099 F F F
  0.0000000000000355  0.6994854716175924  0.0796368952856099 F F F
  0.8703138789575322  0.0000000000000000  0.1548840244483288 F F F
  0.6296861210424680  0.1296861210424680  0.1548840244483288 F F F
  0.5000000000000000  0.3703138789575250  0.1548840244483288 F F F
  0.4999895541194697  0.8731876657951537  0.3052322335042508 T T T
  0.8703138789575321  0.5000000000000001  0.1548840244483288 F F F
  0.6296861210424681  0.6296861210424681  0.1548840244483288 F F F
  0.5000000000000642  0.8703138789575323  0.1548840244483288 F F F
  0.8737842583792369  0.0012357143130871  0.3053181319723544 T T T
  0.7016706457946426  0.0009150385186335  0.2310572809023092 T T T
  0.0000000000000001  0.8677263807581926  0.0063502276059424 F F F
  0.8005145283824079  0.3005145283824078  0.0796368952856099 F F F
  0.5000000000000001  0.3677263807581995  0.0063502276059424 F F F
  0.6322736192418077  0.1322736192418006  0.0063502276059424 F F F
  0.8677263807581994  0.0000000000000000  0.0063502276059424 F F F
  0.5004146479759068  0.2037545557028725  0.2322912860599253 T T T
  0.7987104185576190  0.2989304504592945  0.2306529636199447 T T T
  0.6269774426793948  0.1277261293788690  0.3055449600162377 T T T
  0.5000000000000002  0.1994854716175923  0.0796368952856099 F F F
  0.1322736192418007  0.6322736192418008  0.0063502276059424 F F F
  0.3677263807582279  0.5000000000000001  0.0063502276059424 F F F
  0.3703138789575249  0.0000000000000000  0.1548840244483288 F F F
  0.1296861210424751  0.1296861210424680  0.1548840244483288 F F F
 -0.0000000000000000  0.3703138789575250  0.1548840244483288 F F F
  0.6994854716175923  0.5000000000000001  0.0796368952856099 F F F
  0.1289377631910822  0.1278242475974491  0.3044094338429724 T T T
  0.3713735669065571  0.9998894619973544  0.3042894439914793 T T T
  0.1956621038038097  0.9899205555093239  0.2292884684879989 T T T
  0.3005145283824078  0.3005145283824078  0.0796368952856099 F F F
  0.0000000000000000  0.1994854716175923  0.0796368952856099 F F F
  0.0000000000000143  0.3677263807581995  0.0063502276059424 F F F
  0.1322736192418006  0.1322736192418006  0.0063502276059424 F F F
  0.3677263807581994  0.0000000000000000  0.0063502276059424 F F F
  0.0008887029767605  0.2018025543758795  0.2306566690349193 T T T
  0.0002101501154939  0.3718809873442543  0.3049626228632437 T T T
  0.9993548227670171  0.7013024865814016  0.2309020803135983 T T T
  0.2986348639120115  0.7989190812665407  0.2309896200692018 T T T
  0.1270451589085129  0.6267562748527188  0.3054116610246848 T T T
  0.0000000000000356  0.8703138789575323  0.1548840244483288 F F F
  0.1296861210424681  0.6296861210424681  0.1548840244483288 F F F
  0.3703138789575534  0.5000000000000001  0.1548840244483288 F F F
  0.9998643236418905  0.8725633002550056  0.3057430778108754 T T T
  0.1994854716176065  0.5000000000000001  0.0796368952856099 F F F
  0.6999691296737884  0.4982577242870859  0.2314351948872141 T T T
  0.8734791485133372  0.5004848283926513  0.3052994738787663 T T T
  0.3016068283247759  0.2985086926941379  0.2317184531883200 T T T
  0.8333333350000063  0.6666666650000010  0.0000000000000000 F F F
  0.6666666650000013  0.8333333349999990  0.0000000000000000 F F F
  0.8333333350000063  0.6666666650000010  0.1548840244483288 F F F
  0.5006970419439378  0.5001948066694809  0.2316117712802936 T T T
  0.8340336106534104  0.6668725045354824  0.3097432426187058 T T T
  0.6677846416692496  0.8357233390898127  0.3084437659358237 T T T
  0.5000000000000001  0.5000000000000001  0.0760717089948102 F F F
  0.5000000000000000  0.0000000000000000  0.0760717089948102 F F F
  0.1677557428996803  0.3334270487632443  0.3087547562751439 T T T
  0.3344640341816731  0.1670431622215489  0.3099820636919048 T T T
  0.9998709831265352  0.9993830480675487  0.2313090380220459 T T T
  0.3333333349999991  0.1666666650000011  0.1548840244483288 F F F
  0.1666666650000011  0.3333333349999990  0.0000000000000000 F F F
  0.3333333349999991  0.1666666650000011  0.0000000000000000 F F F
  0.0000000000000000  0.0000000000000000  0.0760717089948102 F F F
  0.1666666650000011  0.3333333349999990  0.1548840244483288 F F F
  0.1659823275287536  0.8320349269231283  0.3093193669008506 T T T
  0.3330006082320002  0.6678371341403933  0.3089809716876973 T T T
  0.6666666650000013  0.3333333349999990  0.1548840244483288 F F F
  0.0001783810950145  0.4999358746675008  0.2313163013695924 T T T
  0.1666666650000011  0.8333333349999990  0.0000000000000000 F F F
  0.3333333350000275  0.6666666650000010  0.0000000000000000 F F F
  0.0000000000000143  0.5000000000000001  0.0760717089948102 F F F
  0.1666666650000011  0.8333333349999990  0.1548840244483288 F F F
  0.6666666650000013  0.8333333349999990  0.1548840244483288 F F F
  0.6689240535773077  0.3340071996937282  0.3084562535884448 T T T
  0.8327270224790154  0.1666801448576051  0.3097375703790824 T T T
  0.5003161181294232  0.0003283398920206  0.2312440914266889 T T T
  0.8333333349999990  0.1666666650000011  0.1548840244483288 F F F
  0.6666666650000013  0.3333333349999990  0.0000000000000000 F F F
  0.8333333349999990  0.1666666650000011  0.0000000000000000 F F F
  0.3333333350000275  0.6666666650000010  0.1548840244483288 F F F
  0.0000676489163972  0.4987287595298335  0.3500613679671614 T T T
  0.4987799929342804  0.0020149188571125  0.3497330212808749 T T T
  0.0024144300714269  0.0004599420884449  0.3499647355293817 T T T
  0.5028942691292815  0.5063583188559225  0.3499074236683611 T T T
  0.4130678465766761  0.2660642638103488  0.3635576297953033 T T T
  0.3950349465912158  0.2425531869290240  0.4619881668443454 T T T
  0.4779596868799483  0.2429929077636666  0.4724830648031977 T T T
  0.4343391833344957  0.4808649101353653  0.5008098115335415 T T T
  0.5262113098026614  0.5483144918205687  0.4954656364448632 T T T
  0.3837649372683449  0.5117862082630227  0.4779665099409373 T T T
  0.4094199662250499  0.3301729989815235  0.4751481845269491 T T T
  0.6185306357927336  0.2409211019982008  0.4948256792406703 T T T
  0.6166501465477066  0.1598434163621431  0.4832712515293553 T T T
  0.6987322753040924  0.3118762619050505  0.4769352100776407 T T T
  0.1979961148415254  0.0478355228370136  0.5301481424364253 T T T
  0.1367095502411171  0.9826039110038559  0.5014719058264293 T T T
  0.2679718442802104  0.1174387042877086  0.5041622028307146 T T T
