Ni   P    H    O    H    O    H    O    H    O    H 
   1.00000000000000     
  11.7365814896693994   0.0000000000000000   0.0000000000000000
  -5.8682907448347201  10.1641777236399005   0.0000000000000000
   0.0000000000000000   0.0000000000000000  21.8470000000000013
Ni   P    H    O    H    O    H    O    H    O    H 
60  32  5  1  1  1  3  1  2  1  3  
Selective dynamics
Direct
  0.1994854716175922  0.0000000000000000  0.0796368952856099 F F F
  0.4999857087586523  0.3721673859600660  0.3050545605771070 T T T
  0.6994854716175924  0.0000000000000000  0.0796368952856099 F F F
  0.6276606943296207  0.6276422584544412  0.3052013339292492 T T T
  0.7984421059757004  0.7985437526972411  0.2307434731680284 T T T
  0.4999249785744222  0.7015462780534724  0.2307290197514007 T T T
  0.8677263807582002  0.5000000000000001  0.0063502276059424 F F F
  0.6322736192418008  0.6322736192418008  0.0063502276059424 F F F
  0.5000000000000006  0.8677263807581931  0.0063502276059424 F F F
  0.5000000000000858  0.6994854716175924  0.0796368952856099 F F F
  0.8005145283824080  0.8005145283824081  0.0796368952856099 F F F
  0.3724640672809187  0.5000560178689789  0.3053409386144306 T T T
  0.2016530434641746  0.5000327806393586  0.2307675330873455 T T T
  0.3005145283824079  0.8005145283824081  0.0796368952856099 F F F
  0.0000000000000572  0.6994854716175924  0.0796368952856099 F F F
  0.8703138789575322  0.0000000000000000  0.1548840244483289 F F F
  0.6296861210424680  0.1296861210424680  0.1548840244483289 F F F
  0.5000000000000001  0.3703138789575251  0.1548840244483289 F F F
  0.4999884580180806  0.8724650551314950  0.3053300399356060 T T T
  0.8703138789575326  0.5000000000000001  0.1548840244483289 F F F
  0.6296861210424681  0.6296861210424681  0.1548840244483289 F F F
  0.5000000000000859  0.8703138789575328  0.1548840244483289 F F F
  0.8722598265536194  0.9999151248607754  0.3053144012376345 T T T
  0.7014849678516984  0.9999917968815564  0.2307664463407437 T T T
  0.0000000000000002  0.8677263807581931  0.0063502276059424 F F F
  0.8005145283824079  0.3005145283824078  0.0796368952856099 F F F
  0.5000000000000006  0.3677263807581996  0.0063502276059424 F F F
  0.6322736192418077  0.1322736192418006  0.0063502276059424 F F F
  0.8677263807581994  0.0000000000000000  0.0063502276059424 F F F
  0.5000723265007856  0.2013828792891052  0.2306724322922281 T T T
  0.7984410389589663  0.2984863211286249  0.2307486546070386 T T T
  0.6275512048830547  0.1275684292186252  0.3053821788198653 T T T
  0.5000000000000002  0.1994854716175923  0.0796368952856099 F F F
  0.1322736192418007  0.6322736192418008  0.0063502276059424 F F F
  0.3677263807582424  0.5000000000000001  0.0063502276059424 F F F
  0.3703138789575249  0.0000000000000000  0.1548840244483289 F F F
  0.1296861210424751  0.1296861210424680  0.1548840244483289 F F F
  0.0000000000000000  0.3703138789575251  0.1548840244483289 F F F
  0.6994854716175929  0.5000000000000001  0.0796368952856099 F F F
  0.1273971271849004  0.1276661880843946  0.3053236965140035 T T T
  0.3723150765171812  0.9998527631128454  0.3052786259910940 T T T
  0.2013738954648158  0.9999726094008605  0.2307392594754736 T T T
  0.3005145283824081  0.3005145283824078  0.0796368952856099 F F F
  0.0000000000000001  0.1994854716175923  0.0796368952856099 F F F
  0.0000000000000215  0.3677263807581996  0.0063502276059424 F F F
  0.1322736192418006  0.1322736192418006  0.0063502276059424 F F F
  0.3677263807581994  0.0000000000000000  0.0063502276059424 F F F
  0.9999706106599119  0.2014581124121454  0.2307445540174042 T T T
  0.0000002964573822  0.3723912136942429  0.3052092938240221 T T T
  0.0002989637721838  0.7017295824024574  0.2307678464193388 T T T
  0.2984886089765372  0.7984851534190052  0.2307446876154566 T T T
  0.1277266817947498  0.6275932976934243  0.3052492377087933 T T T
  0.0000000000000573  0.8703138789575328  0.1548840244483289 F F F
  0.1296861210424681  0.6296861210424681  0.1548840244483289 F F F
  0.3703138789575679  0.5000000000000001  0.1548840244483289 F F F
  0.0000048847054547  0.8724619769356692  0.3053480874628640 T T T
  0.1994854716176210  0.5000000000000001  0.0796368952856099 F F F
  0.7015908289165352  0.5001764842624457  0.2306678417469339 T T T
  0.8725297167012358  0.5001551622648819  0.3051844451697016 T T T
  0.2982801430715634  0.2987097735425984  0.2307513257986162 T T T
  0.8333333350000068  0.6666666650000010  0.0000000000000000 F F F
  0.6666666650000018  0.8333333349999990  0.0000000000000000 F F F
  0.8333333350000068  0.6666666650000010  0.1548840244483289 F F F
  0.4999530271230611  0.5000799301627235  0.2314837867103488 T T T
  0.8333599416947909  0.6667296862815519  0.3090133534200311 T T T
  0.6664770809206469  0.8332609390377680  0.3093482733608795 T T T
  0.5000000000000007  0.5000000000000001  0.0760717089948102 F F F
  0.5000000000000000  0.0000000000000000  0.0760717089948102 F F F
  0.1667481775431242  0.3335185903509659  0.3093898290505681 T T T
  0.3327839160816300  0.1660958816698281  0.3083932511627116 T T T
  0.9999082757117483  0.9999697974899211  0.2315371366188820 T T T
  0.3333333349999992  0.1666666650000011  0.1548840244483289 F F F
  0.1666666650000011  0.3333333349999990  0.0000000000000000 F F F
  0.3333333349999992  0.1666666650000011  0.0000000000000000 F F F
  0.0000000000000000  0.0000000000000000  0.0760717089948102 F F F
  0.1666666650000011  0.3333333349999990  0.1548840244483289 F F F
  0.1665819799557724  0.8332104283983112  0.3093473700647685 T T T
  0.3334961021503587  0.6667665294895312  0.3093344386478177 T T T
  0.6666666650000013  0.3333333349999990  0.1548840244483289 F F F
  0.0001181078598448  0.5000627023345181  0.2314811832053021 T T T
  0.1666666650000011  0.8333333349999990  0.0000000000000000 F F F
  0.3333333350000420  0.6666666650000010  0.0000000000000000 F F F
  0.0000000000000215  0.5000000000000001  0.0760717089948102 F F F
  0.1666666650000011  0.8333333349999990  0.1548840244483289 F F F
  0.6666666650000018  0.8333333349999990  0.1548840244483289 F F F
  0.6670198476070510  0.3334052292846607  0.3089674195580152 T T T
  0.8332847187931596  0.1666547092410297  0.3090735198690177 T T T
  0.5000367523282601  0.9999532742534492  0.2315259558376686 T T T
  0.8333333349999990  0.1666666650000011  0.1548840244483289 F F F
  0.6666666650000013  0.3333333349999990  0.0000000000000000 F F F
  0.8333333349999990  0.1666666650000011  0.0000000000000000 F F F
  0.3333333350000420  0.6666666650000010  0.1548840244483289 F F F
  0.0000539116246229  0.5000358942926791  0.3499597486204534 T T T
  0.4999192642718767  0.0000738979292922  0.3501461567592922 T T T
  0.9998399146523425  0.9999858663689419  0.3501399759843163 T T T
  0.5003647783593785  0.5018987573965009  0.3498367630476476 T T T
  0.4432486312769789  0.2981175896145395  0.4626757718262340 T T T
  0.3916839957127605  0.2371900768342875  0.5649353915393363 T T T
  0.4776102793855193  0.2405791518502736  0.5694105482309414 T T T
  0.4325789124122559  0.4874984746422744  0.5816396399039724 T T T
  0.5244224478864153  0.5542960588642160  0.5755736086455425 T T T
  0.3833278604421668  0.5071339014509252  0.5516848921428251 T T T
  0.4089019962066385  0.3282049182746666  0.5717296339138482 T T T
  0.6266145239308529  0.2400809396785870  0.5758767786031282 T T T
  0.6182312707327573  0.1582583341096040  0.5605775825631500 T T T
  0.6962543975880973  0.3095630217977616  0.5515673757761370 T T T
  0.1748486781122963  0.0309762695280330  0.6146249980286831 T T T
  0.1270220200381896  0.9756751038830417  0.5799677177210114 T T T
  0.2548276260414361  0.1068324080341373  0.5964886511767870 T T T
  0.4604590753228966  0.3190590050493355  0.4296572930930577 T T T
