Ni  P  H  O  H  O  H  O  H  O  H 
 1.0000000000000000
    11.7365814896693994    0.0000000000000000    0.0000000000000000
    -5.8682907448347201   10.1641777236399005    0.0000000000000000
     0.0000000000000000    0.0000000000000000   21.8470000000000013
 Ni  P   H   O   H   O   H   O   H   O   H  
  60  32   4   1   1   1   3   1   2   1   2
Selective dynamics
Cartesian
  2.3412774936450029  0.0000000000000000  1.7398272513047195   F   F   F
  3.7366553972497596  3.6924272707132157  6.5513874721696306   T   T   T
  8.2095682384797026  0.0000000000000000  1.7398272513047195   F   F   F
  3.7211699936763627  6.4582816886324084  6.5807011323856521   T   T   T
  4.6965656920924239  8.1571867793319974  4.9983987814873343   T   T   T
  1.7358815157051646  7.1300566897454773  5.0777492414047867   T   T   T
  7.2499960060871453  5.0820888618199511  0.1387334225070236   F   F   F
  3.7103654279997835  6.4265414359426867  0.1387334225070236   F   F   F
  0.7762200555824691  8.8197251495170974  0.1387334225070236   F   F   F
  1.7635066255952472  7.1096946486252861  1.7398272513047195   F   F   F
  4.6976519980121809  8.1365719368345726  1.7398272513047195   F   F   F
  1.3442895276295475  5.0797041543732924  6.5908392848074175   T   T   T
 -0.6230530592345901  5.0745714622364151  4.9992762582250672   T   T   T
 -1.1706387468225188  8.1365719368345726  1.7398272513047195   F   F   F
 -4.1047841192395333  7.1096946486252861  1.7398272513047195   F   F   F
 10.2145097619753447  0.0000000000000000  3.3837512821226370   F   F   F
  6.6293266086817253  1.3181527825651209  3.3837512821226370   F   F   F
  3.6951812362644096  3.7639360792547603  3.3837512821226370   F   F   F
  0.7209538413555271  8.8753890427866402  6.6958186935352524   T   T   T
  7.2803643895579837  5.0820888618199511  3.3837512821226370   F   F   F
  3.6951812362643630  6.4002416443850745  3.3837512821226370   F   F   F
  0.7610358638474249  8.8460249410747842  3.3837512821226370   F   F   F
 10.2131398734676537  0.0018325094830691  6.6548767401255766   T   T   T
  2.3552462544070476 10.1424471164366405  5.0392480315054522   T   T   T
 -5.0920706892522301  8.8197251495170974  0.1387334225070236   F   F   F
  7.6317973704295410  3.0544830750146197  1.7398272513047195   F   F   F
  3.7103654279997880  3.7376362876972173  0.1387334225070236   F   F   F
  6.6445108004172280  1.3444525741227356  0.1387334225070236   F   F   F
 10.1841413785045045  0.0000000000000000  0.1387334225070236   F   F   F
  4.7952214484647007  2.0467567667316797  4.9621470188419519   T   T   T
  7.6105060703473253  3.0373799284610321  5.0454012861709243   T   T   T
  6.6212416141207928  1.2807258087646232  6.6774351588841689   T   T   T
  4.6976519980121934  2.0276057868053314  1.7398272513047195   F   F   F
 -2.1579253168349162  6.4265414359426867  0.1387334225070236   F   F   F
  1.3817052612526963  5.0820888618199511  0.1387334225070236   F   F   F
  4.3462190171405606  0.0000000000000000  3.3837512821226370   F   F   F
  0.7610358638471083  1.3181527825651209  3.3837512821226370   F   F   F
 -2.1731095085702887  3.7639360792547603  3.3837512821226370   F   F   F
  5.2754228660623417  5.0820888618199511  1.7398272513047195   F   F   F
  0.6868550341827201  1.2661202605293289  6.7709306824557727   T   T   T
  4.3622793684881733  0.0000931608531629  6.6553360202781899   T   T   T
  2.3427027976767416  0.0535747096869344  5.0694347291842288   T   T   T
  1.7635066255948419  3.0544830750146197  1.7398272513047195   F   F   F
 -1.1706387468225061  2.0276057868053314  1.7398272513047195   F   F   F
 -2.1579253168349117  3.7376362876972173  0.1387334225070236   F   F   F
  0.7762200555824448  1.3444525741227356  0.1387334225070236   F   F   F
  4.3158506336698048  0.0000000000000000  0.1387334225070236   F   F   F
 -1.1486547358529720  2.0598102228650315  5.0563233062428594   T   T   T
  9.5231989395258267  3.7901653739163530  6.6740844838295219   T   T   T
  7.6000226996995393  7.1181021702771154  5.0384976144226670   T   T   T
 -1.1801999017125699  8.1160479020736229  5.0436749939531911   T   T   T
 -2.2058844880092372  6.3874626467469211  6.6647002836875160   T   T   T
 -5.1072548809873570  8.8460249410747842  3.3837512821226370   F   F   F
 -2.1731095085703376  6.4002416443850745  3.3837512821226370   F   F   F
  1.4120736447233695  5.0820888618199511  3.3837512821226370   F   F   F
  6.6078644873632859  8.8591920866610128  6.6524060838937693   T   T   T
 -0.5928678787721886  5.0820888618199511  1.7398272513047195   F   F   F
  5.3012625265811746  5.0816634159116214  5.0751154267325145   T   T   T
  7.3142171420280286  5.0809107975181398  6.6942238242315968   T   T   T
  1.7237483324582610  3.0087394559527882  5.1130816045282943   T   T   T
  5.8682907741762040  6.7761184654863156  0.0000000000000000   F   F   F
  2.9341453430758970  8.4701481199735351  0.0000000000000000   F   F   F
  5.8682907741762040  6.7761184654863156  3.3837512821226370   F   F   F
  2.9270585129024482  5.0833703304883926  5.0972288965530339   T   T   T
  5.8920280167963082  6.7750755627423516  6.7442341730329867   T   T   T
  2.9003168077480912  8.4934268472966181  6.7402103726565059   T   T   T
  2.9341453724173392  5.0820888618199511  1.6619386264096183   F   F   F
  5.8682907448346997  0.0000000000000000  1.6619386264096183   F   F   F
 -0.0515940051136838  3.3847148054128184  6.7347468569735556   T   T   T
  2.9195158069629397  1.6690288243167579  6.7829546091844417   T   T   T
 -0.0015070519076087  0.0147991600737490  5.0594342147334990   T   T   T
  2.9341454017587822  1.6940296036663651  3.3837512821226370   F   F   F
 -0.0000000293414437  3.3880592581535875  0.0000000000000000   F   F   F
  2.9341454017587822  1.6940296036663651  0.0000000000000000   F   F   F
  0.0000000000000000  0.0000000000000000  1.6619386264096183   F   F   F
 -0.0000000293414437  3.3880592581535875  3.3837512821226370   F   F   F
 -2.9462965392084626  8.4821223959427812  6.7555112890907161   T   T   T
 -0.0346867305145126  6.7901506511761802  6.7563448724997102   T   T   T
  5.8682907154932558  3.3880592581535875  3.3837512821226370   F   F   F
  8.7869868684229324  5.0833598223366732  5.0545731386529207   T   T   T
 -2.9341454017588013  8.4701481199735351  0.0000000000000000   F   F   F
  0.0000000293416719  6.7761184654863156  0.0000000000000000   F   F   F
 -2.9341453724173583  5.0820888618199511  1.6619386264096183   F   F   F
 -2.9341454017588013  8.4701481199735351  3.3837512821226370   F   F   F
  2.9341453430758970  8.4701481199735351  3.3837512821226370   F   F   F
  5.9064797293557447  3.3726848285542128  6.7485563665802522   T   T   T
  8.7928984833746711  1.6989740422053434  6.7775147618625793   T   T   T
  0.0057849799336999 10.1572051338817850  5.0537748370662046   T   T   T
  8.8024361465934806  1.6940296036663651  3.3837512821226370   F   F   F
  5.8682907154932558  3.3880592581535875  0.0000000000000000   F   F   F
  8.8024361465934806  1.6940296036663651  0.0000000000000000   F   F   F
  0.0000000293416719  6.7761184654863156  3.3837512821226370   F   F   F
 -2.9311856010302701  5.0956952246132330  7.6605589514604651   T   T   T
  5.8462131080854061  0.0228590488187507  7.6580686267786389   T   T   T
  5.7987388683034160 10.1248897681919576  7.6559488063091790   T   T   T
  1.8653163701235289  1.4768283146789898  7.9292256944339554   T   T   T
  3.1877760984354682  2.3343900121389791 10.6043728795990333   T   T   T
  2.2463859012645209  2.1026790589969209 10.8181372101362872   T   T   T
  4.7960978950361799  0.1825505817005815 11.1864804725884088   T   T   T
 -1.1555684592962543 10.1002092898655818 12.1254820668063577   T   T   T
 -1.3020394094481702  9.5418753465723753 10.6884381279301799   T   T   T
  3.7269531175880037  1.5257075897979548 10.8147340204076379   T   T   T
  0.5538438888973752  1.7753084534981480 11.2337418964061033   T   T   T
 -0.0618758333024786  2.4694202068187963 10.9371497624695824   T   T   T
  0.2199498605386146  0.9480505720753092 10.8428357076196775   T   T   T
  4.1256717236181286  4.4535522110129211 12.0406149010289827   T   T   T
  4.2253841595218153  5.1816773117676309 11.4039601979234249   T   T   T
  3.7697623379512555  3.6893821499465140 11.5047435281009811   T   T   T
