Ni   P    H    O    H    O    H    O    H    O    H 
   1.00000000000000     
  11.7365814896693994   0.0000000000000000   0.0000000000000000
  -5.8682907448347201  10.1641777236399005   0.0000000000000000
   0.0000000000000000   0.0000000000000000  21.8470000000000013
Ni   P    H    O    H    O    H    O    H    O    H 
60  36  6  1  2  1  3  1  2  1  2  
Selective dynamics
Direct
  0.1994854716175922  0.0000000000000000  0.0796368952856099 F F F
  0.4988121111181414  0.3707384568500487  0.3033226588223030 T T T
  0.6994854716175922  0.0000000000000000  0.0796368952856099 F F F
  0.6319559066340759  0.6302681844737918  0.3075392557086616 T T T
  0.8020018228901904  0.8016503118030300  0.2322497807757102 T T T
  0.4985285300978504  0.6981819415172197  0.2319571104058298 T T T
  0.8677263807581994  0.5000000000000000  0.0063502276059424 F F F
  0.6322736192418006  0.6322736192418006  0.0063502276059424 F F F
  0.5000000000000000  0.8677263807581923  0.0063502276059424 F F F
  0.5000000000000853  0.6994854716175922  0.0796368952856099 F F F
  0.8005145283824078  0.8005145283824078  0.0796368952856099 F F F
  0.3666852912969460  0.4971512111156500  0.3081907293101764 T T T
  0.2016789764916638  0.5032191340267147  0.2319258259603245 T T T
  0.3005145283824078  0.8005145283824078  0.0796368952856099 F F F
  0.0000000000000497  0.6994854716175922  0.0796368952856099 F F F
  0.8703138789575320  0.0000000000000000  0.1548840244483287 F F F
  0.6296861210424680  0.1296861210424680  0.1548840244483287 F F F
  0.5000000000000000  0.3703138789575249  0.1548840244483287 F F F
  0.4974330633232711  0.8660461580135603  0.3075871199461346 T T T
  0.8703138789575320  0.5000000000000000  0.1548840244483287 F F F
  0.6296861210424680  0.6296861210424680  0.1548840244483287 F F F
  0.5000000000000853  0.8703138789575320  0.1548840244483287 F F F
  0.8649097162136385  0.0009171523424314  0.3074537256718557 T T T
  0.7000213617920465  0.0031945128882498  0.2316540281316506 T T T
  0.0000000000000000  0.8677263807581923  0.0063502276059424 F F F
  0.8005145283824078  0.3005145283824078  0.0796368952856099 F F F
  0.5000000000000000  0.3677263807581994  0.0063502276059424 F F F
  0.6322736192418077  0.1322736192418006  0.0063502276059424 F F F
  0.8677263807581994  0.0000000000000000  0.0063502276059424 F F F
  0.5040796815318416  0.1993253366449821  0.2302259091060748 T T T
  0.7957170408191132  0.3024950562549051  0.2321934798807774 T T T
  0.6300526033090179  0.1331129741290056  0.3079846307388721 T T T
  0.5000000000000000  0.1994854716175922  0.0796368952856099 F F F
  0.1322736192418006  0.6322736192418006  0.0063502276059424 F F F
  0.3677263807582349  0.5000000000000000  0.0063502276059424 F F F
  0.3703138789575249  0.0000000000000000  0.1548840244483287 F F F
  0.1296861210424751  0.1296861210424680  0.1548840244483287 F F F
  0.0000000000000000  0.3703138789575249  0.1548840244483287 F F F
  0.6994854716175922  0.5000000000000000  0.0796368952856099 F F F
  0.1359154573041366  0.1351315720252515  0.3076811803627777 T T T
  0.3716985615302093  0.0010374728507188  0.3029304966655459 T T T
  0.1969515612972046  0.0025086770126777  0.2305865646689611 T T T
  0.3005145283824078  0.3005145283824078  0.0796368952856099 F F F
  0.0000000000000000  0.1994854716175922  0.0796368952856099 F F F
  0.0000000000000142  0.3677263807581994  0.0063502276059424 F F F
  0.1322736192418006  0.1322736192418006  0.0063502276059424 F F F
  0.3677263807581994  0.0000000000000000  0.0063502276059424 F F F
  0.0011477033975495  0.1954049687654660  0.2305238080100551 T T T
  0.9996198618189567  0.3704995429514426  0.3021876033206965 T T T
  0.0019130762968445  0.6997783894403469  0.2316823588263759 T T T
  0.3004916670217597  0.7987822830349032  0.2318365914378688 T T T
  0.1318884006483074  0.6303060835415764  0.3079864712221863 T T T
  0.0000000000000497  0.8703138789575320  0.1548840244483287 F F F
  0.1296861210424680  0.6296861210424680  0.1548840244483287 F F F
  0.3703138789575604  0.5000000000000000  0.1548840244483287 F F F
  0.0009516647272889  0.8648454443723566  0.3074719345717796 T T T
  0.1994854716176135  0.5000000000000000  0.0796368952856099 F F F
  0.7010383062557040  0.5015703778201512  0.2320793725018078 T T T
  0.8668744198810998  0.4970930891157082  0.3085531219227349 T T T
  0.2982359745165937  0.3017480520466123  0.2314308603065243 T T T
  0.8333333350000061  0.6666666650000010  0.0000000000000000 F F F
  0.6666666650000010  0.8333333349999990  0.0000000000000000 F F F
  0.8333333350000061  0.6666666650000010  0.1548840244483287 F F F
  0.4991986026205879  0.5000166741713912  0.2318210202545217 T T T
  0.8329815485911354  0.6649644166245778  0.3076109838808492 T T T
  0.6657865787054220  0.8326682578627995  0.3056857683633467 T T T
  0.5000000000000000  0.5000000000000000  0.0760717089948102 F F F
  0.5000000000000000  0.0000000000000000  0.0760717089948102 F F F
  0.1630497545556722  0.3336847738388684  0.3098479417559048 T T T
  0.3379424245756013  0.1676133778630913  0.3098442415991158 T T T
  0.0007007946772291  0.0003768217987599  0.2326410975665993 T T T
  0.3333333349999990  0.1666666650000010  0.1548840244483287 F F F
  0.1666666650000010  0.3333333349999990  0.0000000000000000 F F F
  0.3333333349999990  0.1666666650000010  0.0000000000000000 F F F
  0.0000000000000000  0.0000000000000000  0.0760717089948102 F F F
  0.1666666650000010  0.3333333349999990  0.1548840244483287 F F F
  0.1718284930856200  0.8362875441065043  0.3082042380335821 T T T
  0.3319867986898117  0.6647824220066667  0.3082214193909323 T T T
  0.6666666650000010  0.3333333349999990  0.1548840244483287 F F F
  0.9992075304204135  0.5009401654477017  0.2318879783856431 T T T
  0.1666666650000010  0.8333333349999990  0.0000000000000000 F F F
  0.3333333350000345  0.6666666650000010  0.0000000000000000 F F F
  0.0000000000000142  0.5000000000000000  0.0760717089948102 F F F
  0.1666666650000010  0.8333333349999990  0.1548840244483287 F F F
  0.6666666650000010  0.8333333349999990  0.1548840244483287 F F F
  0.6622547169486381  0.3339005490719202  0.3107790349686397 T T T
  0.8351492632582094  0.1714775472198227  0.3080938453349376 T T T
  0.5010635561078089  0.0006677023984665  0.2318572900039797 T T T
  0.8333333349999990  0.1666666650000010  0.1548840244483287 F F F
  0.6666666650000010  0.3333333349999990  0.0000000000000000 F F F
  0.8333333349999990  0.1666666650000010  0.0000000000000000 F F F
  0.3333333350000345  0.6666666650000010  0.1548840244483287 F F F
  0.0003037879074554  0.5470658676856175  0.3865293853002072 T T T
  0.4997784223714490  0.5440781315051737  0.3860178730644535 T T T
  0.5420099654992825  0.9996385575230775  0.3856198500129722 T T T
  0.0008211587256000  0.0008069745194490  0.3751732916639483 T T T
  0.5013271138397428  0.6379142845283994  0.4276778704598243 T T T
  0.5007038260085253  0.4546804116749072  0.4293434344716331 T T T
  0.6344161953329390  0.9988647843268694  0.4274208225791156 T T T
  0.4512064393059347  0.9976996695255878  0.4289587337456808 T T T
  0.0015914096886647  0.4579672704263515  0.4299092727309883 T T T
  0.0005583932932396  0.6407667780150135  0.4278440319031489 T T T
  0.0335940115119584  0.0280214830190175  0.5603168946608008 T T T
  0.0015268068789425  0.0011983784308924  0.4405754579271175 T T T
  0.9428572588407746  0.0123310534197358  0.5543817367437427 T T T
  0.0059885748514787  0.7804750223635253  0.5685434580052515 T T T
  0.9263796445662891  0.7179782698449912  0.5468738338010937 T T T
  0.0779875338860805  0.7794221209864176  0.5468397582034044 T T T
  0.0242206818823831  0.9392871533915965  0.5638990432800952 T T T
  0.7846661133324062  0.9897917880376212  0.5425465294467742 T T T
  0.7954613236615771  0.0663049218778653  0.5200828349210695 T T T
  0.7368760525942761  0.9149957930824897  0.5152091278663917 T T T
  0.1688874042294017  0.2189737665856484  0.6453472388532475 T T T
  0.2260571269006206  0.2966858165681785  0.6213002729689947 T T T
  0.1200555794229174  0.1483718931330529  0.6144726308538466 T T T
