Ni   P    H    O    H    O    H    O    H    O    H 
   1.00000000000000     
  11.7365814896693994   0.0000000000000000   0.0000000000000000
  -5.8682907448347201  10.1641777236399005   0.0000000000000000
   0.0000000000000000   0.0000000000000000  21.8470000000000013
Ni   P    H    O    H    O    H    O    H    O    H 
60  36  6  1  2  1  3  1  2  1  3  
Selective dynamics
Direct
  0.1994854716175922  0.0000000000000000  0.0796368952856099 F F F
  0.4986762295752101  0.3701413374212166  0.3030426598503340 T T T
  0.6994854716175922  0.0000000000000000  0.0796368952856099 F F F
  0.6324024883534207  0.6301521894582365  0.3081323130892528 T T T
  0.7988528880962491  0.8006316720383140  0.2316807890490296 T T T
  0.4986269051955929  0.6980960962536500  0.2321042179320756 T T T
  0.8677263807581994  0.5000000000000000  0.0063502276059424 F F F
  0.6322736192418006  0.6322736192418006  0.0063502276059424 F F F
  0.5000000000000000  0.8677263807581923  0.0063502276059424 F F F
  0.5000000000000426  0.6994854716175922  0.0796368952856099 F F F
  0.8005145283824078  0.8005145283824078  0.0796368952856099 F F F
  0.3666642861436600  0.4969906476449779  0.3081331110443983 T T T
  0.2019740715343872  0.5041060231653773  0.2320029442246820 T T T
  0.3005145283824078  0.8005145283824078  0.0796368952856099 F F F
  0.0000000000000213  0.6994854716175922  0.0796368952856099 F F F
  0.8703138789575320  0.0000000000000000  0.1548840244483287 F F F
  0.6296861210424680  0.1296861210424680  0.1548840244483287 F F F
  0.5000000000000000  0.3703138789575249  0.1548840244483287 F F F
  0.4977463384500140  0.8660375038489079  0.3076452227108462 T T T
  0.8703138789575320  0.5000000000000000  0.1548840244483287 F F F
  0.6296861210424680  0.6296861210424680  0.1548840244483287 F F F
  0.5000000000000426  0.8703138789575320  0.1548840244483287 F F F
  0.8662010244049370  0.9986965942687718  0.3068769306078778 T T T
  0.7004953367743241  0.0029673814122617  0.2317648542531714 T T T
  0.0000000000000000  0.8677263807581923  0.0063502276059424 F F F
  0.8005145283824078  0.3005145283824078  0.0796368952856099 F F F
  0.5000000000000000  0.3677263807581994  0.0063502276059424 F F F
  0.6322736192418077  0.1322736192418006  0.0063502276059424 F F F
  0.8677263807581994  0.0000000000000000  0.0063502276059424 F F F
  0.5030470103787934  0.1986424645813329  0.2304118749581505 T T T
  0.7955811603148533  0.3033400233507493  0.2322142827594504 T T T
  0.6303047104412087  0.1332775961285932  0.3079533451343721 T T T
  0.5000000000000000  0.1994854716175922  0.0796368952856099 F F F
  0.1322736192418006  0.6322736192418006  0.0063502276059424 F F F
  0.3677263807581994  0.5000000000000000  0.0063502276059424 F F F
  0.3703138789575249  0.0000000000000000  0.1548840244483287 F F F
  0.1296861210424751  0.1296861210424680  0.1548840244483287 F F F
  0.0000000000000000  0.3703138789575249  0.1548840244483287 F F F
  0.6994854716175922  0.5000000000000000  0.0796368952856099 F F F
  0.1338058184492610  0.1306142987490517  0.3078717078759610 T T T
  0.3723708091967310  0.0005264580199622  0.3040809900987824 T T T
  0.2008652026783508  0.0058928372137501  0.2305251611696235 T T T
  0.3005145283824078  0.3005145283824078  0.0796368952856099 F F F
  0.0000000000000000  0.1994854716175922  0.0796368952856099 F F F
  0.0000000000000000  0.3677263807581994  0.0063502276059424 F F F
  0.1322736192418006  0.1322736192418006  0.0063502276059424 F F F
  0.3677263807581994  0.0000000000000000  0.0063502276059424 F F F
  0.0012101174045895  0.1960779474246053  0.2298860189183074 T T T
  0.9997243197162931  0.3691255335381882  0.3018651984813800 T T T
  0.0014235220177241  0.6972086564668984  0.2301078702237476 T T T
  0.2990140229015452  0.7999744729536999  0.2319224144724075 T T T
  0.1319622621060859  0.6315980854732075  0.3078772952755457 T T T
  0.0000000000000213  0.8703138789575320  0.1548840244483287 F F F
  0.1296861210424680  0.6296861210424680  0.1548840244483287 F F F
  0.3703138789575249  0.5000000000000000  0.1548840244483287 F F F
  0.0013853327330722  0.8698171665007024  0.3025320701291676 T T T
  0.1994854716175922  0.5000000000000000  0.0796368952856099 F F F
  0.7031821984108433  0.5051022613778642  0.2322516657413374 T T T
  0.8670609374375857  0.4982299050659975  0.3084021344966175 T T T
  0.2975109964765892  0.3002359460201305  0.2318534380948094 T T T
  0.8333333350000061  0.6666666650000010  0.0000000000000000 F F F
  0.6666666650000010  0.8333333349999990  0.0000000000000000 F F F
  0.8333333350000061  0.6666666650000010  0.1548840244483287 F F F
  0.4997141770114339  0.5004062983998949  0.2319826528454243 T T T
  0.8361174637583559  0.6693128961366597  0.3078215608307531 T T T
  0.6658772350339248  0.8321937907823909  0.3057911602762715 T T T
  0.5000000000000000  0.5000000000000000  0.0760717089948102 F F F
  0.5000000000000000  0.0000000000000000  0.0760717089948102 F F F
  0.1637989809046232  0.3324962331662888  0.3076773757623954 T T T
  0.3376160006423916  0.1667256019535088  0.3104339104792260 T T T
  0.0011586181655687  0.0010953878390580  0.2320061124942470 T T T
  0.3333333349999990  0.1666666650000010  0.1548840244483287 F F F
  0.1666666650000010  0.3333333349999990  0.0000000000000000 F F F
  0.3333333349999990  0.1666666650000010  0.0000000000000000 F F F
  0.0000000000000000  0.0000000000000000  0.0760717089948102 F F F
  0.1666666650000010  0.3333333349999990  0.1548840244483287 F F F
  0.1694621931810616  0.8380862300765628  0.3083680833663038 T T T
  0.3318672936204408  0.6651242366646315  0.3079722828361966 T T T
  0.6666666650000010  0.3333333349999990  0.1548840244483287 F F F
  0.9993906513271753  0.5013990052080288  0.2321137315723121 T T T
  0.1666666650000010  0.8333333349999990  0.0000000000000000 F F F
  0.3333333349999990  0.6666666650000010  0.0000000000000000 F F F
  0.0000000000000000  0.5000000000000000  0.0760717089948102 F F F
  0.1666666650000010  0.8333333349999990  0.1548840244483287 F F F
  0.6666666650000010  0.8333333349999990  0.1548840244483287 F F F
  0.6627706796609161  0.3344550162530453  0.3103908956801931 T T T
  0.8346704546408859  0.1700720262252133  0.3061855609009285 T T T
  0.5006372068958171  0.0006117626428122  0.2320482471750935 T T T
  0.8333333349999990  0.1666666650000010  0.1548840244483287 F F F
  0.6666666650000010  0.3333333349999990  0.0000000000000000 F F F
  0.8333333349999990  0.1666666650000010  0.0000000000000000 F F F
  0.3333333349999990  0.6666666650000010  0.1548840244483287 F F F
  0.0003060227809755  0.5500209865298800  0.3864119193315645 T T T
  0.4996373563279874  0.5456133195477975  0.3862512349396567 T T T
  0.5432389374219682  0.0001409688581191  0.3857568474110664 T T T
  0.9989473486382252  0.0445537413199943  0.3851452876456207 T T T
  0.4990329447895263  0.6388702696004032  0.4276472171576629 T T T
  0.5000628337582000  0.4563718137291275  0.4298751477926430 T T T
  0.6371548167147338  0.9999934237525423  0.4269268424268873 T T T
  0.4540005059169658  0.9989933754621489  0.4298648045589744 T T T
  0.0017659320212076  0.4607356594083640  0.4297142587237275 T T T
  0.0004180638823001  0.6435279130975076  0.4278392309459349 T T T
  0.0081251004884280  0.0136930600306115  0.5490852699403348 T T T
  0.9980295480021155  0.1358828654340840  0.4276337638455630 T T T
  0.9150546923577210  0.9927984768992673  0.5498086553102937 T T T
  0.0138526408110877  0.7894287635016681  0.5805971233228888 T T T
  0.9254451798554513  0.7171972834973488  0.5890148341414800 T T T
  0.0459891486798085  0.7592773163490634  0.5467100885797223 T T T
  0.0070351834184166  0.9308705145443454  0.5597790483222269 T T T
  0.7507280023100193  0.9598571952231865  0.5556267734392364 T T T
  0.7418706705413669  0.0353835347638665  0.5443831233519347 T T T
  0.6913228207945750  0.8886677402178691  0.5286522769503321 T T T
  0.1753959539602263  0.2280795386083554  0.6146759261551864 T T T
  0.2321025172230975  0.2925422829270943  0.5845214060027502 T T T
  0.1137135913828757  0.1490007926594572  0.5901492209669073 T T T
  0.9953406156410907  0.9520006551098774  0.4279411837351077 T T T
