Ni   P    H    O    H    O    H    O    H    O    H 
   1.00000000000000     
  11.7365814896693994   0.0000000000000000   0.0000000000000000
  -5.8682907448347201  10.1641777236399005   0.0000000000000000
   0.0000000000000000   0.0000000000000000  21.8470000000000013
Ni   P    H    O    H    O    H    O    H    O    H 
60  36  6  1  2  1  3  1  2  1  2  
Selective dynamics
Direct
  0.1994854716175922  0.0000000000000000  0.0796368952856099 F F F
  0.4975486889780762  0.3703109825440799  0.3038529979420009 T T T
  0.6994854716175922  0.0000000000000000  0.0796368952856099 F F F
  0.6328246049950248  0.6306647792491666  0.3074859337193473 T T T
  0.8019362523505411  0.8012189276516121  0.2319089419713725 T T T
  0.4982431423400351  0.6976887651537423  0.2322486258095707 T T T
  0.8677263807581995  0.5000000000000001  0.0063502276059424 F F F
  0.6322736192418006  0.6322736192418007  0.0063502276059424 F F F
  0.5000000000000001  0.8677263807581929  0.0063502276059424 F F F
  0.5000000000000782  0.6994854716175932  0.0796368952856099 F F F
  0.8005145283824079  0.8005145283824081  0.0796368952856099 F F F
  0.3656311212457954  0.4959184124304187  0.3084697644524620 T T T
  0.2017308490906509  0.5036874568252314  0.2320284272116364 T T T
  0.3005145283824079  0.8005145283824081  0.0796368952856099 F F F
  0.0000000000000428  0.6994854716175932  0.0796368952856099 F F F
  0.8703138789575320  0.0000000000000000  0.1548840244483287 F F F
  0.6296861210424680  0.1296861210424680  0.1548840244483287 F F F
  0.5000000000000000  0.3703138789575253  0.1548840244483287 F F F
  0.4987648010164370  0.8663171106960126  0.3078050108445340 T T T
  0.8703138789575320  0.5000000000000001  0.1548840244483287 F F F
  0.6296861210424680  0.6296861210424683  0.1548840244483287 F F F
  0.5000000000000783  0.8703138789575325  0.1548840244483287 F F F
  0.8692384353748951  0.0013866247764576  0.3075633815598138 T T T
  0.7008845606592800  0.0032765008010221  0.2318732565849208 T T T
  0.0000000000000001  0.8677263807581929  0.0063502276059424 F F F
  0.8005145283824078  0.3005145283824078  0.0796368952856099 F F F
  0.5000000000000000  0.3677263807581997  0.0063502276059424 F F F
  0.6322736192418077  0.1322736192418006  0.0063502276059424 F F F
  0.8677263807581994  0.0000000000000000  0.0063502276059424 F F F
  0.5051770834629130  0.1998776903980298  0.2304292040133522 T T T
  0.7957381853756145  0.3031017749176217  0.2322743595688724 T T T
  0.6313850950930118  0.1335389063038319  0.3082469873851300 T T T
  0.5000000000000000  0.1994854716175923  0.0796368952856099 F F F
  0.1322736192418006  0.6322736192418007  0.0063502276059424 F F F
  0.3677263807582353  0.5000000000000001  0.0063502276059424 F F F
  0.3703138789575248  0.0000000000000000  0.1548840244483287 F F F
  0.1296861210424751  0.1296861210424680  0.1548840244483287 F F F
  0.0000000000000001  0.3703138789575253  0.1548840244483287 F F F
  0.6994854716175922  0.5000000000000001  0.0796368952856099 F F F
  0.1322417931476604  0.1312631225186955  0.3078718985137783 T T T
  0.3725350885031644  0.0016917923618980  0.3033245087090323 T T T
  0.1974766761569488  0.0023000206070639  0.2302006572211385 T T T
  0.3005145283824078  0.3005145283824078  0.0796368952856099 F F F
  0.9999999999999929  0.1994854716175923  0.0796368952856099 F F F
  0.0000000000000143  0.3677263807581997  0.0063502276059424 F F F
  0.1322736192418006  0.1322736192418006  0.0063502276059424 F F F
  0.3677263807581994  0.0000000000000000  0.0063502276059424 F F F
  0.0013271067338177  0.1959951619909281  0.2300829233001738 T T T
  0.9998457820304913  0.3710923059469471  0.3024773948730195 T T T
  0.0022471591723066  0.7008696534288391  0.2320613716345259 T T T
  0.3010447181464423  0.7991377693874113  0.2320488176876676 T T T
  0.1323903652887211  0.6317122518866536  0.3081358418044432 T T T
  0.0000000000000428  0.8703138789575325  0.1548840244483287 F F F
  0.1296861210424680  0.6296861210424683  0.1548840244483287 F F F
  0.3703138789575606  0.5000000000000001  0.1548840244483287 F F F
  0.0015716193071801  0.8694303342961641  0.3079943894357264 T T T
  0.1994854716176253  0.5000000000000001  0.0796368952856099 F F F
  0.7003439703901103  0.5005176605610406  0.2322666266360082 T T T
  0.8668986848245255  0.4980404659230636  0.3087164395785201 T T T
  0.2973876889232114  0.3008667549871470  0.2315995135600000 T T T
  0.8333333350000061  0.6666666650000012  0.0000000000000000 F F F
  0.6666666650000010  0.8333333349999990  0.0000000000000000 F F F
  0.8333333350000061  0.6666666650000012  0.1548840244483287 F F F
  0.4988769235916696  0.4996476165603134  0.2320101624365006 T T T
  0.8351391980743418  0.6677847742439824  0.3075597202971408 T T T
  0.6685708654909307  0.8341721794620833  0.3059082957327091 T T T
  0.5000000000000000  0.5000000000000001  0.0760717089948102 F F F
  0.5000000000000000  0.0000000000000000  0.0760717089948102 F F F
  0.1614553532407266  0.3310884170442466  0.3099216159943000 T T T
  0.3360576903610576  0.1667887086020679  0.3104322444973973 T T T
  0.0009912469388139  0.0004678381349095  0.2324306007417627 T T T
  0.3333333349999990  0.1666666650000011  0.1548840244483287 F F F
  0.1666666650000010  0.3333333349999991  0.0000000000000000 F F F
  0.3333333349999990  0.1666666650000011  0.0000000000000000 F F F
  0.0000000000000000  0.0000000000000000  0.0760717089948102 F F F
  0.1666666650000010  0.3333333349999991  0.1548840244483287 F F F
  0.1715911954787377  0.8382992188550754  0.3085058521635899 T T T
  0.3323559558297062  0.6648031175883475  0.3075942731284209 T T T
  0.6666666650000010  0.3333333349999991  0.1548840244483287 F F F
  0.9993471525583910  0.5015156305237380  0.2320578752655299 T T T
  0.1666666650000011  0.8333333349999990  0.0000000000000000 F F F
  0.3333333350000345  0.6666666650000012  0.0000000000000000 F F F
  0.0000000000000348  0.5000000000000001  0.0760717089948102 F F F
  0.1666666650000011  0.8333333349999990  0.1548840244483287 F F F
  0.6666666650000010  0.8333333349999990  0.1548840244483287 F F F
  0.6617507882507151  0.3341801478537141  0.3103771637661978 T T T
  0.8369121291767944  0.1709417737559572  0.3082343929995193 T T T
  0.5015810811820326  0.0009186753407072  0.2320820569350178 T T T
  0.8333333349999988  0.1666666650000011  0.1548840244483287 F F F
  0.6666666650000010  0.3333333349999991  0.0000000000000000 F F F
  0.8333333349999988  0.1666666650000011  0.0000000000000000 F F F
  0.3333333350000345  0.6666666650000012  0.1548840244483287 F F F
  0.0006520028176891  0.5456962497847766  0.3863644834387968 T T T
  0.5003850885850305  0.5428942068009576  0.3856847811630234 T T T
  0.5431548924233105  0.9998356971958634  0.3857441319867154 T T T
  0.0013466608124192  0.0021452281068679  0.3798826055207146 T T T
  0.5010448288821113  0.6367512480820098  0.4275000436946517 T T T
  0.5026411679931744  0.4562936183549666  0.4305469369552304 T T T
  0.6365493334446299  0.0000666423238039  0.4276996437527369 T T T
  0.4539444799587367  0.9975677741193812  0.4304020055579439 T T T
  0.0022519146752378  0.4577776578250383  0.4306400180863234 T T T
  0.0011691438065853  0.6389563111402158  0.4284542203604114 T T T
  0.9945833684261711  0.0010355492498046  0.5212307774360533 T T T
  0.0000965260405145  0.0055757224426671  0.4731340197150680 T T T
  0.9014127348688160  0.9882917730064049  0.5342415547687765 T T T
  0.0141870287275133  0.8078307649879456  0.5565364348388384 T T T
  0.9403589018663531  0.7250136332444808  0.5420413966846799 T T T
  0.0937106127691531  0.8128853450524082  0.5397293515783878 T T T
  0.0013771256807161  0.9175630298664775  0.5350911158311736 T T T
  0.7781051872254103  0.9743050232105773  0.5553072426066404 T T T
  0.7713050565847251  0.0510706198065167  0.5437730369754445 T T T
  0.7041259959741963  0.8983224160756862  0.5359494368369404 T T T
  0.1595744489980961  0.1928003098017480  0.6188173932974173 T T T
  0.2290746499571315  0.2766147746197101  0.6031289642141791 T T T
  0.1162901676669581  0.1415028000882380  0.5820790687516868 T T T
