Ni   P    H    O    H    O    H    O    H    O    H 
   1.00000000000000     
  11.7365814896693994   0.0000000000000000   0.0000000000000000
  -5.8682907448347201  10.1641777236399005   0.0000000000000000
   0.0000000000000000   0.0000000000000000  21.8470000000000013
Ni   P    H    O    H    O    H    O    H    O    H 
60  32  4  1  1  1  3  1  2  1  2  
Selective dynamics
Direct
  0.1994854716175922  0.0000000000000000  0.0796368952856099 F F F
  0.4998841041578485  0.3672671083192284  0.3024245150040430 T T T
  0.6994854716175924  0.0000000000000000  0.0796368952856099 F F F
  0.6327110108038948  0.6327434874362590  0.3024315488693989 T T T
  0.8013259308776117  0.8013712259947090  0.2294294848192063 T T T
  0.4998464616242180  0.7018986840570812  0.2315490961765724 T T T
  0.8677263807581999  0.5000000000000001  0.0063502276059424 F F F
  0.6322736192418008  0.6322736192418008  0.0063502276059424 F F F
  0.5000000000000004  0.8677263807581930  0.0063502276059424 F F F
  0.5000000000000642  0.6994854716175924  0.0796368952856099 F F F
  0.8005145283824080  0.8005145283824081  0.0796368952856099 F F F
  0.3673181308340843  0.4999246558936483  0.3024877567602329 T T T
  0.1986913856117500  0.4999637909020443  0.2294076737078614 T T T
  0.3005145283824079  0.8005145283824081  0.0796368952856099 F F F
  0.0000000000000427  0.6994854716175924  0.0796368952856099 F F F
  0.8703138789575322  0.0000000000000000  0.1548840244483288 F F F
  0.6296861210424680  0.1296861210424680  0.1548840244483288 F F F
  0.5000000000000001  0.3703138789575251  0.1548840244483288 F F F
  0.4999153688126540  0.8730136108631104  0.3059210339003428 T T T
  0.8703138789575323  0.5000000000000001  0.1548840244483288 F F F
  0.6296861210424681  0.6296861210424681  0.1548840244483288 F F F
  0.5000000000000644  0.8703138789575326  0.1548840244483288 F F F
  0.8725897361570748  0.0003163776010625  0.3051821416904600 T T T
  0.7008002775035982  0.9992937681167919  0.2309232861935330 T T T
  0.0000000000000002  0.8677263807581930  0.0063502276059424 F F F
  0.8005145283824079  0.3005145283824078  0.0796368952856099 F F F
  0.5000000000000002  0.3677263807581996  0.0063502276059424 F F F
  0.6322736192418077  0.1322736192418006  0.0063502276059424 F F F
  0.8677263807581994  0.0000000000000000  0.0063502276059424 F F F
  0.5000198760025026  0.1986963721602198  0.2293974243940384 T T T
  0.7985621733448502  0.2991053971672906  0.2309261801417997 T T T
  0.6277136402161760  0.1274118082167711  0.3051874882972341 T T T
  0.5000000000000002  0.1994854716175923  0.0796368952856099 F F F
  0.1322736192418007  0.6322736192418008  0.0063502276059424 F F F
  0.3677263807582281  0.5000000000000001  0.0063502276059424 F F F
  0.3703138789575249  0.0000000000000000  0.1548840244483288 F F F
  0.1296861210424751  0.1296861210424680  0.1548840244483288 F F F
  0.0000000000000001  0.3703138789575251  0.1548840244483288 F F F
  0.6994854716175926  0.5000000000000001  0.0796368952856099 F F F
  0.1268607095262065  0.1268900189096555  0.3060753229229597 T T T
  0.3723116605156145  0.9998289666627970  0.3052048285069170 T T T
  0.2016171086213296  0.0008964426417663  0.2309388146267425 T T T
  0.3005145283824079  0.3005145283824078  0.0796368952856099 F F F
  0.0000000000000001  0.1994854716175923  0.0796368952856099 F F F
  0.0000000000000143  0.3677263807581996  0.0063502276059424 F F F
  0.1322736192418006  0.1322736192418006  0.0063502276059424 F F F
  0.3677263807581994  0.0000000000000000  0.0063502276059424 F F F
  0.0008214320590944  0.2015923424762733  0.2309556638156514 T T T
  0.9998201145152665  0.3723190014523970  0.3052270355976743 T T T
  0.9993489577765753  0.7008048171329598  0.2308841343845153 T T T
  0.2991315942305506  0.7985681569093216  0.2309179761537063 T T T
  0.1273877322892657  0.6276998667118580  0.3051648343199188 T T T
  0.0000000000000428  0.8703138789575326  0.1548840244483288 F F F
  0.1296861210424681  0.6296861210424681  0.1548840244483288 F F F
  0.3703138789575535  0.5000000000000001  0.1548840244483288 F F F
  0.0003496309154213  0.8726095143503591  0.3051352064188441 T T T
  0.1994854716176066  0.5000000000000001  0.0796368952856099 F F F
  0.7018779634132554  0.4998732190164390  0.2315453715059900 T T T
  0.8729865830299344  0.4999224198220644  0.3058932394815342 T T T
  0.2978940474517046  0.2979562296457566  0.2315909204055449 T T T
  0.8333333350000065  0.6666666650000010  0.0000000000000000 F F F
  0.6666666650000015  0.8333333349999990  0.0000000000000000 F F F
  0.8333333350000065  0.6666666650000010  0.1548840244483288 F F F
  0.4999563008236122  0.4999979465109659  0.2330789008866764 T T T
  0.8346151009437391  0.6669341326423217  0.3094720227082329 T T T
  0.6668741991872391  0.8346131980503956  0.3096728386547064 T T T
  0.5000000000000003  0.5000000000000001  0.0760717089948102 F F F
  0.5000000000000000  0.0000000000000000  0.0760717089948102 F F F
  0.1656270568575136  0.3323663643652626  0.3099539299520525 T T T
  0.3323115069414962  0.1656004616168784  0.3099192079882198 T T T
  0.0006536943045236  0.0006879055079199  0.2313918110846728 T T T
  0.3333333349999992  0.1666666650000011  0.1548840244483288 F F F
  0.1666666650000011  0.3333333349999990  0.0000000000000000 F F F
  0.3333333349999992  0.1666666650000011  0.0000000000000000 F F F
  0.0000000000000000  0.0000000000000000  0.0760717089948102 F F F
  0.1666666650000011  0.3333333349999990  0.1548840244483288 F F F
  0.1667267058977171  0.8333929400681621  0.3090814366025788 T T T
  0.3330279939842923  0.6674957162280001  0.3096245958174598 T T T
  0.6666666650000013  0.3333333349999990  0.1548840244483288 F F F
  0.9994322991626424  0.4999256612759153  0.2313834228848027 T T T
  0.1666666650000011  0.8333333349999990  0.0000000000000000 F F F
  0.3333333350000276  0.6666666650000010  0.0000000000000000 F F F
  0.0000000000000143  0.5000000000000001  0.0760717089948102 F F F
  0.1666666650000011  0.8333333349999990  0.1548840244483288 F F F
  0.6666666650000015  0.8333333349999990  0.1548840244483288 F F F
  0.6674861842503448  0.3330603333197271  0.3096970523873058 T T T
  0.8333907577279058  0.1667135602908288  0.3091207570583977 T T T
  0.4999746280802801  0.9994471910914280  0.2313883427291238 T T T
  0.8333333349999990  0.1666666650000011  0.1548840244483288 F F F
  0.6666666650000013  0.3333333349999990  0.0000000000000000 F F F
  0.8333333349999990  0.1666666650000011  0.0000000000000000 F F F
  0.3333333350000276  0.6666666650000010  0.1548840244483288 F F F
  0.0008058344443653  0.5000280934966912  0.3503989613851380 T T T
  0.5000046020288750  0.0008617706561116  0.3504112491521219 T T T
  0.9991134264150793  0.9990921483202103  0.3504492579962621 T T T
  0.4921950333619709  0.4918963984702945  0.4085690751410337 T T T
  0.4980451806133733  0.4951469928494552  0.4541717485669168 T T T
  0.5838686590098117  0.4876022379824657  0.4685889311940917 T T T
  0.5201486658212140  0.7003546079482621  0.4962034335360268 T T T
  0.6092319862474032  0.7750166831232881  0.4917497573810771 T T T
  0.4604751826181200  0.7260405456587022  0.4777975912612629 T T T
  0.5082804545625124  0.5884417555106505  0.4705985337487874 T T T
  0.6870249751114629  0.4779987837113367  0.4917707907439591 T T T
  0.6819014019602588  0.3946673189495896  0.4812472284028932 T T T
  0.7718039640362067  0.5483303798562319  0.4770022412274664 T T T
  0.2811843179756074  0.2821668750915238  0.5297789456144536 T T T
  0.2157389081057211  0.2141977285928814  0.5033072530446122 T T T
  0.3453670310846717  0.3472984963961215  0.5015077129999954 T T T
