Ni   P    H    O    H    O    H    O    H    O    H 
   1.00000000000000     
  11.7365814896693994   0.0000000000000000   0.0000000000000000
  -5.8682907448347201  10.1641777236399005   0.0000000000000000
   0.0000000000000000   0.0000000000000000  21.8470000000000013
Ni   P    H    O    H    O    H    O    H    O    H 
60  32  5  1  2  1  3  1  2  1  2  
Selective dynamics
Direct
  0.1994854716175922  0.0000000000000000  0.0796368952856099 F F F
  0.5012751148806527  0.3754245552707871  0.3084036113790286 T T T
  0.6994854716175924  0.0000000000000000  0.0796368952856099 F F F
  0.6284356156647606  0.6294896219447126  0.3042593934176044 T T T
  0.7982277138726620  0.7990169299218660  0.2302581250548742 T T T
  0.4998908454263326  0.7015542283508731  0.2306942575496991 T T T
  0.8677263807581997  0.5000000000000001  0.0063502276059424 F F F
  0.6322736192418008  0.6322736192418008  0.0063502276059424 F F F
  0.5000000000000003  0.8677263807581928  0.0063502276059424 F F F
  0.5000000000000214  0.6994854716175924  0.0796368952856099 F F F
  0.8005145283824080  0.8005145283824081  0.0796368952856099 F F F
  0.3721885594381237  0.5012334232734215  0.3047258962698419 T T T
  0.2011481375658667  0.5004826289910405  0.2303741516027012 T T T
  0.3005145283824079  0.8005145283824081  0.0796368952856099 F F F
  0.0000000000000143  0.6994854716175924  0.0796368952856099 F F F
  0.8703138789575322  0.0000000000000000  0.1548840244483288 F F F
  0.6296861210424680  0.1296861210424680  0.1548840244483288 F F F
  0.5000000000000001  0.3703138789575250  0.1548840244483288 F F F
  0.4991501106087118  0.8734771969853466  0.3050623295620677 T T T
  0.8703138789575322  0.5000000000000001  0.1548840244483288 F F F
  0.6296861210424681  0.6296861210424681  0.1548840244483288 F F F
  0.5000000000000216  0.8703138789575324  0.1548840244483288 F F F
  0.8714522155712057  0.0004677043882069  0.3043685087433547 T T T
  0.7013224686005597  0.0011160144587942  0.2306918344462483 T T T
  0.0000000000000001  0.8677263807581928  0.0063502276059424 F F F
  0.8005145283824079  0.3005145283824078  0.0796368952856099 F F F
  0.5000000000000001  0.3677263807581996  0.0063502276059424 F F F
  0.6322736192418077  0.1322736192418006  0.0063502276059424 F F F
  0.8677263807581994  0.0000000000000000  0.0063502276059424 F F F
  0.5089755726174473  0.2068928335266028  0.2304724288264048 T T T
  0.7991456027510588  0.2988534506527888  0.2306129815869157 T T T
  0.6272302835920578  0.1280283052322801  0.3055284785505039 T T T
  0.5000000000000002  0.1994854716175923  0.0796368952856099 F F F
  0.1322736192418007  0.6322736192418008  0.0063502276059424 F F F
  0.3677263807582067  0.5000000000000001  0.0063502276059424 F F F
  0.3703138789575249  0.0000000000000000  0.1548840244483288 F F F
  0.1296861210424751  0.1296861210424680  0.1548840244483288 F F F
  0.0000000000000000  0.3703138789575250  0.1548840244483288 F F F
  0.6994854716175924  0.5000000000000001  0.0796368952856099 F F F
  0.1257828255844412  0.1267751401114711  0.3080723097007206 T T T
  0.3716947183140515  0.0012817103569573  0.3038013482855924 T T T
  0.1964216643610019  0.9940694801852737  0.2298119786098287 T T T
  0.3005145283824079  0.3005145283824078  0.0796368952856099 F F F
  0.0000000000000001  0.1994854716175923  0.0796368952856099 F F F
  0.0000000000000000  0.3677263807581996  0.0063502276059424 F F F
  0.1322736192418006  0.1322736192418006  0.0063502276059424 F F F
  0.3677263807581994  0.0000000000000000  0.0063502276059424 F F F
  0.0044987520780246  0.2026156140038696  0.2314315387458685 T T T
  0.9996468924621885  0.3728169889420943  0.3050144209248712 T T T
  0.9993095662911029  0.7009897079105697  0.2304611507608525 T T T
  0.2983132783803085  0.7997630085533786  0.2309556581894075 T T T
  0.1274453251987714  0.6278618057258935  0.3051536988474770 T T T
  0.0000000000000144  0.8703138789575324  0.1548840244483288 F F F
  0.1296861210424681  0.6296861210424681  0.1548840244483288 F F F
  0.3703138789575250  0.5000000000000001  0.1548840244483288 F F F
  0.9979585083872381  0.8707796625412398  0.3046269077118432 T T T
  0.1994854716175924  0.5000000000000001  0.0796368952856099 F F F
  0.6984351576382032  0.4967681041149250  0.2318493996767080 T T T
  0.8740997786901118  0.5007304683309917  0.3054608831871864 T T T
  0.3001628180796254  0.2960070486053781  0.2329606100202385 T T T
  0.8333333350000064  0.6666666650000010  0.0000000000000000 F F F
  0.6666666650000014  0.8333333349999990  0.0000000000000000 F F F
  0.8333333350000064  0.6666666650000010  0.1548840244483288 F F F
  0.4998855452213956  0.4996775876259498  0.2313984415396653 T T T
  0.8326245950806070  0.6651903205950511  0.3092853350910601 T T T
  0.6655047674431154  0.8344747975712627  0.3078204729091843 T T T
  0.5000000000000002  0.5000000000000001  0.0760717089948102 F F F
  0.5000000000000000  0.0000000000000000  0.0760717089948102 F F F
  0.1669763736003609  0.3358332236611763  0.3078090883049138 T T T
  0.3357055824445443  0.1669356071859271  0.3123290686527412 T T T
  0.0003209755532419  0.0001182995478509  0.2313875035892873 T T T
  0.3333333349999991  0.1666666650000011  0.1548840244483288 F F F
  0.1666666650000011  0.3333333349999990  0.0000000000000000 F F F
  0.3333333349999991  0.1666666650000011  0.0000000000000000 F F F
  0.0000000000000000  0.0000000000000000  0.0760717089948102 F F F
  0.1666666650000011  0.3333333349999990  0.1548840244483288 F F F
  0.1660200277044530  0.8334745615642829  0.3087232079350008 T T T
  0.3331038553005133  0.6677437814957853  0.3094451598942397 T T T
  0.6666666650000013  0.3333333349999990  0.1548840244483288 F F F
  0.0002209427471250  0.5003870621352157  0.2312177656678857 T T T
  0.1666666650000011  0.8333333349999990  0.0000000000000000 F F F
  0.3333333350000062  0.6666666650000010  0.0000000000000000 F F F
  0.0000000000000001  0.5000000000000001  0.0760717089948102 F F F
  0.1666666650000011  0.8333333349999990  0.1548840244483288 F F F
  0.6666666650000014  0.8333333349999990  0.1548840244483288 F F F
  0.6700023932082100  0.3346013666898249  0.3087690383296687 T T T
  0.8327038256053988  0.1673735463978409  0.3100494422455422 T T T
  0.5008413757774770  0.0008909896708931  0.2310359425612112 T T T
  0.8333333349999990  0.1666666650000011  0.1548840244483288 F F F
  0.6666666650000013  0.3333333349999990  0.0000000000000000 F F F
  0.8333333349999990  0.1666666650000011  0.0000000000000000 F F F
  0.3333333350000062  0.6666666650000010  0.1548840244483288 F F F
  0.0010970612649067  0.5003642498979969  0.3501269389861834 T T T
  0.4992979717629384  0.0039814234031607  0.3492531251365925 T T T
  0.9952604060581642  0.9978856865514741  0.3491702831639739 T T T
  0.5034135819497038  0.5064514524393676  0.3494110606897681 T T T
  0.2233123616550875  0.1359658001867690  0.3622804683066719 T T T
  0.3977535076809530  0.2471207717414012  0.4691314722723214 T T T
  0.4231701836941274  0.2717802472976090  0.3641934282361110 T T T
  0.3055184716269593  0.2261180754374627  0.4763530334330164 T T T
  0.4032354523761946  0.0226192147472347  0.4997037349023510 T T T
  0.3349256416601715  0.9724960713180844  0.5298186446018240 T T T
  0.3897433197920775  0.9599897933358219  0.4673809447714301 T T T
  0.3986441631865251  0.1647420089809414  0.4789590518973043 T T T
  0.1442988568265628  0.1894736753027252  0.4920150732173177 T T T
  0.1204513580429832  0.2525479648973649  0.4764980091479291 T T T
  0.0755748376260387  0.1036257673122379  0.4778790777186618 T T T
  0.5619376011181633  0.4483240672511303  0.5460062424027001 T T T
  0.6226972002941029  0.5203900081789655  0.5199159003542380 T T T
  0.5039672134351101  0.3766301406941998  0.5172891232242579 T T T
