Ni   P    H    O    H    O    H    O    
   1.00000000000000     
    11.7365814896693994    0.0000000000000000    0.0000000000000000
    -5.8682907448347201   10.1641777236399005    0.0000000000000000
     0.0000000000000000    0.0000000000000000   21.8470000000000013
   Ni   P    H    O    H    O    H    O    H    O    H 
    60    36     6     1     2     1     3     1     2     1     3
Selective dynamics
Direct
  0.1994854716175922  0.0000000000000000  0.0796368952856099   F   F   F
  0.4993111034312676  0.3719363754325542  0.3038789639035002   T   T   T
  0.6994854716175922  0.0000000000000000  0.0796368952856099   F   F   F
  0.6334870646522859  0.6315842775340741  0.3073450875455350   T   T   T
  0.8020051361445297  0.8012844956585496  0.2315954922389309   T   T   T
  0.4983562035172042  0.6982541674389466  0.2317769917781902   T   T   T
  0.8677263807581994  0.5000000000000000  0.0063502276059424   F   F   F
  0.6322736192418006  0.6322736192418006  0.0063502276059424   F   F   F
  0.5000000000000000  0.8677263807581923  0.0063502276059424   F   F   F
  0.5000000000000426  0.6994854716175922  0.0796368952856099   F   F   F
  0.8005145283824078  0.8005145283824078  0.0796368952856099   F   F   F
  0.3668379317302808  0.4973891661338357  0.3080367148492442   T   T   T
  0.2004838741645543  0.4999890326858463  0.2319260868347897   T   T   T
  0.3005145283824078  0.8005145283824078  0.0796368952856099   F   F   F
  0.0000000000000213  0.6994854716175922  0.0796368952856099   F   F   F
  0.8703138789575320  0.0000000000000000  0.1548840244483287   F   F   F
  0.6296861210424680  0.1296861210424680  0.1548840244483287   F   F   F
  0.5000000000000000  0.3703138789575249  0.1548840244483287   F   F   F
  0.4983133294213147  0.8664058162346748  0.3075975782090339   T   T   T
  0.8703138789575320  0.5000000000000000  0.1548840244483287   F   F   F
  0.6296861210424680  0.6296861210424680  0.1548840244483287   F   F   F
  0.5000000000000426  0.8703138789575320  0.1548840244483287   F   F   F
  0.8674795941619067  0.0029844547750315  0.3073340013193047   T   T   T
  0.7013384903344857  0.0043014018340060  0.2319317754174079   T   T   T
  0.0000000000000000  0.8677263807581923  0.0063502276059424   F   F   F
  0.8005145283824078  0.3005145283824078  0.0796368952856099   F   F   F
  0.5000000000000000  0.3677263807581994  0.0063502276059424   F   F   F
  0.6322736192418077  0.1322736192418006  0.0063502276059424   F   F   F
  0.8677263807581994  0.0000000000000000  0.0063502276059424   F   F   F
  0.5021712370798497  0.1991509236545355  0.2304269502613252   T   T   T
  0.7954616002828772  0.3025284449522161  0.2322603210533316   T   T   T
  0.6298093607648951  0.1333020223696906  0.3082127066974323   T   T   T
  0.5000000000000000  0.1994854716175922  0.0796368952856099   F   F   F
  0.1322736192418006  0.6322736192418006  0.0063502276059424   F   F   F
  0.3677263807581994  0.5000000000000000  0.0063502276059424   F   F   F
  0.3703138789575249  0.0000000000000000  0.1548840244483287   F   F   F
  0.1296861210424751  0.1296861210424680  0.1548840244483287   F   F   F
  0.0000000000000000  0.3703138789575249  0.1548840244483287   F   F   F
  0.6994854716175922  0.5000000000000000  0.0796368952856099   F   F   F
  0.1322050747420249  0.1309480714708897  0.3060588850091008   T   T   T
  0.3722807091214264  0.0014373884235184  0.3032280398194587   T   T   T
  0.1977747195774668  0.0009999874435991  0.2303675316322114   T   T   T
  0.3005145283824078  0.3005145283824078  0.0796368952856099   F   F   F
  0.0000000000000000  0.1994854716175922  0.0796368952856099   F   F   F
  0.0000000000000000  0.3677263807581994  0.0063502276059424   F   F   F
  0.1322736192418006  0.1322736192418006  0.0063502276059424   F   F   F
  0.3677263807581994  0.0000000000000000  0.0063502276059424   F   F   F
  0.0004465597215813  0.1966382201231909  0.2304587873747934   T   T   T
  0.9994917078212211  0.3709888025195269  0.3026556899048884   T   T   T
  0.0027608658143166  0.7009033901891470  0.2320128552731404   T   T   T
  0.3006428076611698  0.7991045189768258  0.2319343209298879   T   T   T
  0.1321180772440371  0.6301996591907866  0.3079840043833357   T   T   T
  0.0000000000000213  0.8703138789575320  0.1548840244483287   F   F   F
  0.1296861210424680  0.6296861210424680  0.1548840244483287   F   F   F
  0.3703138789575249  0.5000000000000000  0.1548840244483287   F   F   F
  0.0030858867173151  0.8674248054364782  0.3074923248657413   T   T   T
  0.1994854716176064  0.5000000000000000  0.0796368952856099   F   F   F
  0.7009124395355499  0.5010112753120382  0.2319106020516273   T   T   T
  0.8669964357639515  0.4974259212456289  0.3084685255147690   T   T   T
  0.2997191460890107  0.3027247265832145  0.2312123367741421   T   T   T
  0.8333333350000061  0.6666666650000010  0.0000000000000000   F   F   F
  0.6666666650000010  0.8333333349999990  0.0000000000000000   F   F   F
  0.8333333350000061  0.6666666650000010  0.1548840244483287   F   F   F
  0.4991132555295721  0.4999054815063531  0.2319004194848233   T   T   T
  0.8342965942262666  0.6660601712565537  0.3065360349864292   T   T   T
  0.6670230110185358  0.8336320019412966  0.3046676286936147   T   T   T
  0.5000000000000000  0.5000000000000000  0.0760717089948102   F   F   F
  0.5000000000000000  0.0000000000000000  0.0760717089948102   F   F   F
  0.1628793149883307  0.3327761004172558  0.3086204809040680   T   T   T
  0.3378031300127944  0.1683101238501052  0.3087553447688123   T   T   T
  0.0012843589459592  0.0008471968832069  0.2326307923760993   T   T   T
  0.3333333349999990  0.1666666650000010  0.1548840244483287   F   F   F
  0.1666666650000010  0.3333333349999990  0.0000000000000000   F   F   F
  0.3333333349999990  0.1666666650000010  0.0000000000000000   F   F   F
  0.0000000000000000  0.0000000000000000  0.0760717089948102   F   F   F
  0.1666666650000010  0.3333333349999990  0.1548840244483287   F   F   F
  0.1725305308378466  0.8364528041420840  0.3082634494552110   T   T   T
  0.3323284157930715  0.6650389430070973  0.3078401174419412   T   T   T
  0.6666666650000010  0.3333333349999990  0.1548840244483287   F   F   F
  0.9992115855529065  0.5009210827534574  0.2319411892918524   T   T   T
  0.1666666650000010  0.8333333349999990  0.0000000000000000   F   F   F
  0.3333333349999990  0.6666666650000010  0.0000000000000000   F   F   F
  0.0000000000000142  0.5000000000000000  0.0760717089948102   F   F   F
  0.1666666650000010  0.8333333349999990  0.1548840244483287   F   F   F
  0.6666666650000010  0.8333333349999990  0.1548840244483287   F   F   F
  0.6622588690624198  0.3342350129015941  0.3108289466994307   T   T   T
  0.8350337552389178  0.1719502301615989  0.3079935096579192   T   T   T
  0.5011655590110706  0.0008830757219158  0.2319687445215166   T   T   T
  0.8333333349999990  0.1666666650000010  0.1548840244483287   F   F   F
  0.6666666650000010  0.3333333349999990  0.0000000000000000   F   F   F
  0.8333333349999990  0.1666666650000010  0.0000000000000000   F   F   F
  0.3333333349999990  0.6666666650000010  0.1548840244483287   F   F   F
  0.0000806117742727  0.5467884257528226  0.3864924944579116   T   T   T
  0.5004764851484964  0.5446056392812366  0.3858163014542058   T   T   T
  0.5438153505932490  0.9993421602874548  0.3859327247833662   T   T   T
  0.9783545297167464  0.9786798952904334  0.3818756407337744   T   T   T
  0.5029534036212056  0.6397049183920060  0.4270861742902667   T   T   T
  0.5018491622280052  0.4564558345711163  0.4298496352099974   T   T   T
  0.6376279444895019  0.9996152935341911  0.4273716556821583   T   T   T
  0.4531072508412706  0.9960447555931538  0.4298109914154082   T   T   T
  0.0003466815086526  0.4576396404921823  0.4302485023658278   T   T   T
  0.0005369954786616  0.6408224289657127  0.4277764347630892   T   T   T
  0.0015197709992378  0.0135769357817281  0.5555312713669025   T   T   T
  0.0964260646451294  0.0975938163677412  0.4007354586908463   T   T   T
  0.9090058749992878  0.9926322731220338  0.5611502913477509   T   T   T
  0.0236666906673548  0.8011686120173280  0.5941686908484485   T   T   T
  0.9387018043111226  0.7271969426051825  0.6059891865846367   T   T   T
  0.0542374043729978  0.7685731498127453  0.5606130880377549   T   T   T
  0.0044653217323400  0.9339998656085200  0.5686358699560685   T   T   T
  0.7476280710135725  0.9636042868290957  0.5744219679459448   T   T   T
  0.7421558416018925  0.0413200850679445  0.5637568609492973   T   T   T
  0.6843439037581476  0.8938476422872270  0.5478838598352240   T   T   T
  0.1656777522788957  0.2205187609788837  0.6275842004842218   T   T   T
  0.2290960398191757  0.2869711347085939  0.5999683597822951   T   T   T
  0.1061764354730101  0.1455756532030250  0.6004163346010074   T   T   T
  0.9320189536561685  0.9320143649490973  0.4420089206082878   T   T   T
 
             NaN             NaN             NaN
             NaN             NaN             NaN
             NaN             NaN             NaN
             NaN             NaN             NaN
             NaN             NaN             NaN
             NaN             NaN             NaN
             NaN             NaN             NaN
             NaN             NaN             NaN
             NaN             NaN             NaN
             NaN             NaN             NaN
             NaN             NaN             NaN
             NaN             NaN             NaN
             NaN             NaN             NaN
             NaN             NaN             NaN
             NaN             NaN             NaN
             NaN             NaN             NaN
             NaN             NaN             NaN
             NaN             NaN             NaN
             NaN             NaN             NaN
             NaN             NaN             NaN
             NaN             NaN             NaN
             NaN             NaN             NaN
             NaN             NaN             NaN
             NaN             NaN             NaN
             NaN             NaN             NaN
             NaN             NaN             NaN
             NaN             NaN             NaN
             NaN             NaN             NaN
             NaN             NaN             NaN
             NaN             NaN             NaN
             NaN             NaN             NaN
             NaN             NaN             NaN
             NaN             NaN             NaN
             NaN             NaN             NaN
             NaN             NaN             NaN
             NaN             NaN             NaN
             NaN             NaN             NaN
             NaN             NaN             NaN
             NaN             NaN             NaN
             NaN             NaN             NaN
             NaN             NaN             NaN
             NaN             NaN             NaN
             NaN             NaN             NaN
             NaN             NaN             NaN
             NaN             NaN             NaN
             NaN             NaN             NaN
             NaN             NaN             NaN
             NaN             NaN             NaN
             NaN             NaN             NaN
             NaN             NaN             NaN
             NaN             NaN             NaN
             NaN             NaN             NaN
             NaN             NaN             NaN
             NaN             NaN             NaN
             NaN             NaN             NaN
             NaN             NaN             NaN
             NaN             NaN             NaN
             NaN             NaN             NaN
             NaN             NaN             NaN
             NaN             NaN             NaN
             NaN             NaN             NaN
             NaN             NaN             NaN
             NaN             NaN             NaN
             NaN             NaN             NaN
             NaN             NaN             NaN
             NaN             NaN             NaN
             NaN             NaN             NaN
             NaN             NaN             NaN
             NaN             NaN             NaN
             NaN             NaN             NaN
             NaN             NaN             NaN
             NaN             NaN             NaN
             NaN             NaN             NaN
             NaN             NaN             NaN
             NaN             NaN             NaN
             NaN             NaN             NaN
             NaN             NaN             NaN
             NaN             NaN             NaN
             NaN             NaN             NaN
             NaN             NaN             NaN
             NaN             NaN             NaN
             NaN             NaN             NaN
             NaN             NaN             NaN
             NaN             NaN             NaN
             NaN             NaN             NaN
             NaN             NaN             NaN
             NaN             NaN             NaN
             NaN             NaN             NaN
             NaN             NaN             NaN
             NaN             NaN             NaN
             NaN             NaN             NaN
             NaN             NaN             NaN
             NaN             NaN             NaN
             NaN             NaN             NaN
             NaN             NaN             NaN
             NaN             NaN             NaN
             NaN             NaN             NaN
             NaN             NaN             NaN
             NaN             NaN             NaN
             NaN             NaN             NaN
             NaN             NaN             NaN
             NaN             NaN             NaN
             NaN             NaN             NaN
             NaN             NaN             NaN
             NaN             NaN             NaN
             NaN             NaN             NaN
             NaN             NaN             NaN
             NaN             NaN             NaN
             NaN             NaN             NaN
             NaN             NaN             NaN
             NaN             NaN             NaN
             NaN             NaN             NaN
             NaN             NaN             NaN
             NaN             NaN             NaN
             NaN             NaN             NaN
             NaN             NaN             NaN
