Ni  P  O  H  O  H  O  H  O  H 
 1.0000000000000000
    11.7365814896694367    0.0000000000000000    0.0000000000000000
    -5.8682907448347157   10.1641777236399449    0.0000000000000000
     0.0000000000000000    0.0000000000000000   21.8470000000000013
 Ni  P   O   H   O   H   O   H   O   H  
  60  32   1   1   1   3   1   2   1   2
Selective dynamics
Cartesian
  2.3412774936450105  0.0000000000000000  1.7398272513047195   F   F   F
  3.6842589606010012  3.7555934937579307  6.8484128032926179   T   T   T
  8.2095682384797311  0.0000000000000000  1.7398272513047195   F   F   F
  3.7157578883607831  6.4645007685845250  6.5697359156596526   T   T   T
  4.7096635358676080  8.1564437847712394  5.0162295954401079   T   T   T
  1.7698785082487249  7.1051891674147951  5.0201007058886526   T   T   T
  7.2499960060871977  5.0820888618199733  0.1387334225070236   F   F   F
  3.7103654279998115  6.4265414359427160  0.1387334225070236   F   F   F
  0.7762200555824956  8.8197251495171383  0.1387334225070236   F   F   F
  1.7635066255956360  7.1096946486253136  1.7398272513047195   F   F   F
  4.6976519980122164  8.1365719368346081  1.7398272513047195   F   F   F
  1.3364710838285574  5.0915689506948008  6.5522703385797971   T   T   T
 -0.6242486537342289  5.0822185601874539  5.0118956236901928   T   T   T
 -1.1706387468225041  8.1365719368346081  1.7398272513047195   F   F   F
 -4.1047841192394259  7.1096946486253136  1.7398272513047195   F   F   F
 10.2145097619753784  0.0000000000000000  3.3837512821226419   F   F   F
  6.6293266086817493  1.3181527825651267  3.3837512821226419   F   F   F
  3.6951812362644314  3.7639360792547754  3.3837512821226419   F   F   F
  0.7756319011508651  8.8196139882914508  6.6119539679125650   T   T   T
  7.2803643895580361  5.0820888618199733  3.3837512821226419   F   F   F
  3.6951812362643919  6.4002416443851002  3.3837512821226419   F   F   F
  0.7610358638478121  8.8460249410748251  3.3837512821226419   F   F   F
 10.1911281571035417  0.0169788928660981  6.6153180190622303   T   T   T
  2.3363252588735159 10.1564052607725106  5.0266822150567325   T   T   T
 -5.0920706892522265  8.8197251495171383  0.1387334225070236   F   F   F
  7.6317973704295747  3.0544830750146330  1.7398272513047195   F   F   F
  3.7103654279998199  3.7376362876972324  0.1387334225070236   F   F   F
  6.6445108004172520  1.3444525741227416  0.1387334225070236   F   F   F
 10.1841413785045365  0.0000000000000000  0.1387334225070236   F   F   F
  4.6708864574412328  2.0715277694028185  5.0931480554758339   T   T   T
  7.6404962937245227  3.0642907861691548  5.0214379038014396   T   T   T
  6.6514442979182080  1.3303427973587743  6.6005982716241522   T   T   T
  4.6976519980122156  2.0276057868053403  1.7398272513047195   F   F   F
 -2.1579253168349077  6.4265414359427160  0.1387334225070236   F   F   F
  1.3817052612528105  5.0820888618199733  0.1387334225070236   F   F   F
  4.3462190171405748  0.0000000000000000  3.3837512821226419   F   F   F
  0.7610358638471135  1.3181527825651267  3.3837512821226419   F   F   F
 -2.1731095085702878  3.7639360792547754  3.3837512821226419   F   F   F
  5.2754228660623816  5.0820888618199733  1.7398272513047195   F   F   F
  0.7672627835481426  1.3471968113001367  6.6038675930341624   T   T   T
 -1.5428303302855502 10.1499106518804005  6.6055126417430294   T   T   T
 -3.5409054291052167 10.1511724936295042  5.0215043099770549   T   T   T
  1.7635066255948606  3.0544830750146330  1.7398272513047195   F   F   F
 -1.1706387468225041  2.0276057868053403  1.7398272513047195   F   F   F
 -2.1579253168346488  3.7376362876972324  0.1387334225070236   F   F   F
  0.7762200555824502  1.3444525741227416  0.1387334225070236   F   F   F
  4.3158506336698181  0.0000000000000000  0.1387334225070236   F   F   F
 -1.1660198050739412  2.0339914610528709  5.0259233100189293   T   T   T
  9.5613103894586420  3.7439568468030062  6.6189745250330656   T   T   T
  7.6182324755762201  7.1065117555403567  5.0281375895146248   T   T   T
 -1.1617637657402504  8.1357898212535638  5.0277235375836931   T   T   T
 -2.1793729233269348  6.4284691418067501  6.6172097493327682   T   T   T
 -5.1072548809872531  8.8460249410748251  3.3837512821226419   F   F   F
 -2.1731095085703269  6.4002416443851002  3.3837512821226419   F   F   F
  1.4120736447234827  5.0820888618199733  3.3837512821226419   F   F   F
 -5.0932646045091614  8.8322966589781888  6.6198498861597139   T   T   T
 -0.5928678787720829  5.0820888618199733  1.7398272513047195   F   F   F
  5.2485812820693187  4.9973025511509741  5.0562034886570935   T   T   T
  7.2458243398068740  5.0895930995341363  6.6111240392211004   T   T   T
  1.8445830268696723  3.0341703387846608  5.0467084127682451   T   T   T
  5.8682907741762556  6.7761184654863440  0.0000000000000000   F   F   F
  2.9341453430759361  8.4701481199735724  0.0000000000000000   F   F   F
  5.8682907741762556  6.7761184654863440  3.3837512821226419   F   F   F
  2.9604554247127628  5.0391024444476686  5.1171837112192433   T   T   T
  5.8736104419308628  6.7854468071719376  6.7530715818986371   T   T   T
  2.9355094668797395  8.4980153939640850  6.7271034147515394   T   T   T
  2.9341453724173707  5.0820888618199733  1.6619386264096183   F   F   F
  5.8682907448347184  0.0000000000000000  1.6619386264096183   F   F   F
 -0.0192712656041450  3.3818181346565921  6.7291791430640471   T   T   T
  2.9211994803175449  1.6381756741591471  6.7002741530862169   T   T   T
 11.7346639554688252 -0.0000706488862118  5.0826227033659563   T   T   T
  2.9341454017587973  1.6940296036663725  3.3837512821226419   F   F   F
 -0.0000000293414341  3.3880592581536009  0.0000000000000000   F   F   F
  2.9341454017587973  1.6940296036663725  0.0000000000000000   F   F   F
  0.0000000000000000  0.0000000000000000  1.6619386264096183   F   F   F
 -0.0000000293414341  3.3880592581536009  3.3837512821226419   F   F   F
 -2.9390866674472704  8.4731849665952801  6.7812387245024484   T   T   T
 -0.0265934547919912  6.7884795461428480  6.7247989471435341   T   T   T
  5.8682907154932860  3.3880592581536009  3.3837512821226419   F   F   F
  8.7958981617250860  5.0850344525499889  5.0845964853935151   T   T   T
 -2.9341454017587916  8.4701481199735724  0.0000000000000000   F   F   F
  0.0000000293417875  6.7761184654863440  0.0000000000000000   F   F   F
 -2.9341453724170981  5.0820888618199733  1.6619386264096183   F   F   F
 -2.9341454017587916  8.4701481199735724  3.3837512821226419   F   F   F
  2.9341453430759361  8.4701481199735724  3.3837512821226419   F   F   F
  5.9109687889955440  3.3687980414394185  6.7097578240505760   T   T   T
  8.7998616870696278  1.6978112397715295  6.7828830409656602   T   T   T
  0.0014020316885738 10.1595630758817386  5.0804368604370866   T   T   T
  8.8024361465935126  1.6940296036663725  3.3837512821226419   F   F   F
  5.8682907154932860  3.3880592581536009  0.0000000000000000   F   F   F
  8.8024361465935126  1.6940296036663725  0.0000000000000000   F   F   F
  0.0000000293417875  6.7761184654863440  3.3837512821226419   F   F   F
  6.2972467192131338  3.2871165868430783  8.3446844812008081   T   T   T
  5.3953768635806263  2.9949506871830027  8.7124041704875115   T   T   T
  8.5546260856410576  1.8171079698322885  8.4196479898229004   T   T   T
  8.0898441072029801  1.0798871513796340  8.8595106431151294   T   T   T
  9.1681143449177291  1.3940388291866437  7.7886375744212550   T   T   T
  6.9822883987434334  2.6849069343128242  8.7944546587996033   T   T   T
  2.9673702530172563  1.9051600195085454  8.3520507955439758   T   T   T
  2.2075708918734338  2.5011367563816100  8.2163350115405240   T   T   T
  2.6371865947090325  1.0051328991134463  8.1752264060848123   T   T   T
  6.0074468305517383  6.3902190638279333  8.6279119059560312   T   T   T
  6.2980446591590775  7.1458689739485353  8.0877796809562028   T   T   T
  6.1681984854578022  5.5954557130588567  8.0683281110774274   T   T   T
