Ni   P    H    O    H    O    H    O    H    O    H 
   1.00000000000000     
  11.7365814896693994   0.0000000000000000   0.0000000000000000
  -5.8682907448347201  10.1641777236399005   0.0000000000000000
   0.0000000000000000   0.0000000000000000  21.8470000000000013
Ni   P    H    O    H    O    H    O    H    O    H 
60  32  5  1  2  1  3  1  2  1  2  
Selective dynamics
Direct
  0.1994854716175922  0.0000000000000000  0.0796368952856099 F F F
  0.5024360360188896  0.3742491020857208  0.3046676831796941 T T T
  0.6994854716175924  0.0000000000000000  0.0796368952856099 F F F
  0.6264484097325370  0.6263410418950868  0.3046087896797494 T T T
  0.7986762896986476  0.7976504867946502  0.2293660959489179 T T T
  0.4998808397737319  0.7019506348314832  0.2305523366694333 T T T
  0.8677263807581997  0.5000000000000001  0.0063502276059424 F F F
  0.6322736192418008  0.6322736192418008  0.0063502276059424 F F F
  0.5000000000000003  0.8677263807581928  0.0063502276059424 F F F
  0.5000000000000356  0.6994854716175924  0.0796368952856099 F F F
  0.8005145283824080  0.8005145283824081  0.0796368952856099 F F F
  0.3742375039797168  0.5022795715201881  0.3047681502413092 T T T
  0.2013423501033224  0.5022867671162792  0.2302525722440374 T T T
  0.3005145283824079  0.8005145283824081  0.0796368952856099 F F F
  0.0000000000000285  0.6994854716175924  0.0796368952856099 F F F
  0.8703138789575322  0.0000000000000000  0.1548840244483288 F F F
  0.6296861210424680  0.1296861210424680  0.1548840244483288 F F F
  0.5000000000000001  0.3703138789575250  0.1548840244483288 F F F
  0.4996350319404151  0.8725636938387797  0.3054917143733807 T T T
  0.8703138789575322  0.5000000000000001  0.1548840244483288 F F F
  0.6296861210424681  0.6296861210424681  0.1548840244483288 F F F
  0.5000000000000357  0.8703138789575324  0.1548840244483288 F F F
  0.8666105187087667  0.9947600826837080  0.3043370355760561 T T T
  0.7001689621399027  0.9993371380645831  0.2301588131838454 T T T
  0.0000000000000001  0.8677263807581928  0.0063502276059424 F F F
  0.8005145283824079  0.3005145283824078  0.0796368952856099 F F F
  0.5000000000000001  0.3677263807581996  0.0063502276059424 F F F
  0.6322736192418077  0.1322736192418006  0.0063502276059424 F F F
  0.8677263807581994  0.0000000000000000  0.0063502276059424 F F F
  0.5030960415622387  0.2017048053069233  0.2301694618345014 T T T
  0.7985316212289616  0.2981043779093405  0.2310587126486318 T T T
  0.6268684158765324  0.1270500076876418  0.3054129621723688 T T T
  0.5000000000000002  0.1994854716175923  0.0796368952856099 F F F
  0.1322736192418007  0.6322736192418008  0.0063502276059424 F F F
  0.3677263807582138  0.5000000000000001  0.0063502276059424 F F F
  0.3703138789575249  0.0000000000000000  0.1548840244483288 F F F
  0.1296861210424751  0.1296861210424680  0.1548840244483288 F F F
  0.0000000000000000  0.3703138789575250  0.1548840244483288 F F F
  0.6994854716175924  0.5000000000000001  0.0796368952856099 F F F
  0.1384198000782337  0.1377855483207667  0.3083801188309732 T T T
  0.3719630475099264  0.9983499700405845  0.3049149198705962 T T T
  0.1985868224294263  0.9993245004864141  0.2327085618606995 T T T
  0.3005145283824079  0.3005145283824078  0.0796368952856099 F F F
  0.0000000000000001  0.1994854716175923  0.0796368952856099 F F F
  0.0000000000000072  0.3677263807581996  0.0063502276059424 F F F
  0.1322736192418006  0.1322736192418006  0.0063502276059424 F F F
  0.3677263807581994  0.0000000000000000  0.0063502276059424 F F F
  0.0004100264561853  0.1990530280914236  0.2328177428663085 T T T
  0.9985075375345928  0.3719621782092729  0.3051209648314966 T T T
  0.9994108722617553  0.7008863809616859  0.2305934424272396 T T T
  0.2978738171230711  0.7984728402279605  0.2309646278521904 T T T
  0.1270574689768972  0.6269902681672800  0.3053527239534408 T T T
  0.0000000000000286  0.8703138789575324  0.1548840244483288 F F F
  0.1296861210424681  0.6296861210424681  0.1548840244483288 F F F
  0.3703138789575393  0.5000000000000001  0.1548840244483288 F F F
  0.9953053446353103  0.8686482374589873  0.3054933465995448 T T T
  0.1994854716175995  0.5000000000000001  0.0796368952856099 F F F
  0.7022186449313662  0.5002734865059743  0.2305179977307746 T T T
  0.8727273336563317  0.5000029235836208  0.3055299698923338 T T T
  0.2989737240295153  0.2991033757389287  0.2304603906281823 T T T
  0.8333333350000064  0.6666666650000010  0.0000000000000000 F F F
  0.6666666650000014  0.8333333349999990  0.0000000000000000 F F F
  0.8333333350000064  0.6666666650000010  0.1548840244483288 F F F
  0.5009717255001684  0.5010182286601589  0.2307353962853256 T T T
  0.8297577324224304  0.6635636208348750  0.3101189668683644 T T T
  0.6625435342949068  0.8289867953933664  0.3100603345038155 T T T
  0.5000000000000002  0.5000000000000001  0.0760717089948102 F F F
  0.5000000000000000  0.0000000000000000  0.0760717089948102 F F F
  0.1693892372667515  0.3425740552399881  0.3062027432997048 T T T
  0.3432860827960651  0.1694053337049898  0.3053230146693881 T T T
  0.0025805947090048  0.0024198944902216  0.2333525287906479 T T T
  0.3333333349999991  0.1666666650000011  0.1548840244483288 F F F
  0.1666666650000011  0.3333333349999990  0.0000000000000000 F F F
  0.3333333349999991  0.1666666650000011  0.0000000000000000 F F F
  0.0000000000000000  0.0000000000000000  0.0760717089948102 F F F
  0.1666666650000011  0.3333333349999990  0.1548840244483288 F F F
  0.1648622728665284  0.8321674130760207  0.3094444329943172 T T T
  0.3335916108151625  0.6674988228510471  0.3102752431018202 T T T
  0.6666666650000013  0.3333333349999990  0.1548840244483288 F F F
  0.9995461172479595  0.5004485912838914  0.2313548676689415 T T T
  0.1666666650000011  0.8333333349999990  0.0000000000000000 F F F
  0.3333333350000133  0.6666666650000010  0.0000000000000000 F F F
  0.0000000000000072  0.5000000000000001  0.0760717089948102 F F F
  0.1666666650000011  0.8333333349999990  0.1548840244483288 F F F
  0.6666666650000014  0.8333333349999990  0.1548840244483288 F F F
  0.6677788597036692  0.3337802832694222  0.3104229015967184 T T T
  0.8320385911381274  0.1650381506102588  0.3089861753661739 T T T
  0.5003994954957556  0.9995301698935225  0.2312854795110247 T T T
  0.8333333349999990  0.1666666650000011  0.1548840244483288 F F F
  0.6666666650000013  0.3333333349999990  0.0000000000000000 F F F
  0.8333333349999990  0.1666666650000011  0.0000000000000000 F F F
  0.3333333350000133  0.6666666650000010  0.1548840244483288 F F F
  0.0001014884060658  0.5001528728786655  0.3501913151313892 T T T
  0.5000880571288484  0.0000842234520245  0.3501658070749672 T T T
  0.9112697212251812  0.9129954828314619  0.3503871118666030 T T T
  0.5013974993067649  0.5012697913865077  0.3496271227381444 T T T
  0.1143303250178531  0.0753830102938726  0.3767802600502786 T T T
  0.1018966410220289  0.2053881894963645  0.4764888458698004 T T T
  0.1234188059105036  0.1500010620514979  0.3844188424447261 T T T
  0.0093677401930493  0.1860198085648679  0.4809474937814881 T T T
  0.1107251041843132  0.9876853086012209  0.5149454890314082 T T T
  0.0326231506724450  0.9265508685028391  0.5379196680465137 T T T
  0.1190690430516867  0.9354803104724408  0.4824680881931918 T T T
  0.1019740568743081  0.1251599284819605  0.4913624361238016 T T T
  0.8479276736922725  0.1510179580523707  0.4923095484177477 T T T
  0.8302731281853239  0.2180824951509028  0.4762535817082553 T T T
  0.7833999302302339  0.0688345120567303  0.4731505424399048 T T T
  0.2732304587975564  0.4155142885176109  0.5467564435955815 T T T
  0.3331327042595891  0.4825342771299894  0.5183365395355554 T T T
  0.2113706840913431  0.3406239846011906  0.5204392550385183 T T T
