 H 
 1.0000000000000000
    11.7365814896694367    0.0000000000000000    0.0000000000000000
    -5.8682907448347157   10.1641777236399449    0.0000000000000000
     0.0000000000000000    0.0000000000000000   21.8470000000000013
 H  
   2
Selective dynamics
Cartesian
  0.0000000000000000  0.0000000000000000 12.4385829999999729   T   T   T
  0.0000000000000000  0.0000000000000000 11.6014169999999748   F   F   F
