Ni  P  O  H  O  H  O  H  O  H 
 1.0000000000000000
    11.7365814896694367    0.0000000000000000    0.0000000000000000
    -5.8682907448347157   10.1641777236399449    0.0000000000000000
     0.0000000000000000    0.0000000000000000   21.8470000000000013
 Ni  P   O   H   O   H   O   H   O   H  
  60  36   1   1   1   3   1   2   1   2
Selective dynamics
Cartesian
  2.3412774936450105  0.0000000000000000  1.7398272513047195   F   F   F
  3.7238410510311568  3.7079900450609857  6.6888494546970900   T   T   T
  8.2095682384797311  0.0000000000000000  1.7398272513047195   F   F   F
  3.7170313913903805  6.4352941511283239  6.7401170759669995   T   T   T
  4.7052110479591134  8.1487516313516597  5.0542476301048502   T   T   T
  1.7814341682159678  7.1008565143525368  5.0753342444952576   T   T   T
  7.2499960060871977  5.0820888618199733  0.1387334225070236   F   F   F
  3.7103654279998115  6.4265414359427160  0.1387334225070236   F   F   F
  0.7762200555824956  8.8197251495171383  0.1387334225070236   F   F   F
  1.7635066255955321  7.1096946486253136  1.7398272513047195   F   F   F
  4.6976519980122164  8.1365719368346081  1.7398272513047195   F   F   F
  1.3512338732804468  5.0774329428367615  6.6955642557659578   T   T   T
 -0.6187732599115054  5.0826954206435211  5.0421628748058014   T   T   T
 -1.1706387468225041  8.1365719368346081  1.7398272513047195   F   F   F
 -4.1047841192394658  7.1096946486253136  1.7398272513047195   F   F   F
 10.2145097619753784  0.0000000000000000  3.3837512821226419   F   F   F
  6.6293266086817493  1.3181527825651267  3.3837512821226419   F   F   F
  3.6951812362644314  3.7639360792547754  3.3837512821226419   F   F   F
  0.7632321541241066  8.8362717168754781  6.7209648394230266   T   T   T
  7.2803643895580361  5.0820888618199733  3.3837512821226419   F   F   F
  3.6951812362643919  6.4002416443851002  3.3837512821226419   F   F   F
  0.7610358638477916  8.8460249410748251  3.3837512821226419   F   F   F
 10.2124516757949575  0.0055579692142870  6.7185743480405655   T   T   T
  2.3366714489557960 10.1489595097141265  5.0554879772981414   T   T   T
 -5.0920706892522265  8.8197251495171383  0.1387334225070236   F   F   F
  7.6317973704295747  3.0544830750146330  1.7398272513047195   F   F   F
  3.7103654279998199  3.7376362876972324  0.1387334225070236   F   F   F
  6.6445108004172520  1.3444525741227416  0.1387334225070236   F   F   F
 10.1841413785045365  0.0000000000000000  0.1387334225070236   F   F   F
  4.7110799343611749  2.0025663480861158  5.0397373199239990   T   T   T
  7.6292035135497187  3.0605940859556311  5.0543748268086279   T   T   T
  6.6395195296486325  1.3074093527548252  6.7152331109537950   T   T   T
  4.6976519980122156  2.0276057868053403  1.7398272513047195   F   F   F
 -2.1579253168349077  6.4265414359427160  0.1387334225070236   F   F   F
  1.3817052612527581  5.0820888618199733  0.1387334225070236   F   F   F
  4.3462190171405748  0.0000000000000000  3.3837512821226419   F   F   F
  0.7610358638471135  1.3181527825651267  3.3837512821226419   F   F   F
 -2.1731095085702878  3.7639360792547754  3.3837512821226419   F   F   F
  5.2754228660623816  5.0820888618199733  1.7398272513047195   F   F   F
  0.7615110194581137  1.3166315043259442  6.7205443409895045   T   T   T
 -1.5233405366929600 10.1497190600540339  6.7163599321395724   T   T   T
  2.3343216605233952  0.0019094017555667  5.0547819439290631   T   T   T
  1.7635066255948606  3.0544830750146330  1.7398272513047195   F   F   F
 -1.1706387468225041  2.0276057868053403  1.7398272513047195   F   F   F
 -2.1579253168347110  3.7376362876972324  0.1387334225070236   F   F   F
  0.7762200555824502  1.3444525741227416  0.1387334225070236   F   F   F
  4.3158506336698181  0.0000000000000000  0.1387334225070236   F   F   F
 -1.1652819371114633  2.0214675773526594  5.0545105552445451   T   T   T
  9.5529735361440675  3.7548568965061553  6.7158244941281566   T   T   T
  7.6234490173577329  7.0984575386497397  5.0552527747094018   T   T   T
 -1.1619059273718240  8.1354181336626414  5.0556088124063416   T   T   T
 -2.1854308815269512  6.4031995937512534  6.7171365660967952   T   T   T
 -5.1072548809872931  8.8460249410748251  3.3837512821226419   F   F   F
 -2.1731095085703269  6.4002416443851002  3.3837512821226419   F   F   F
  1.4120736447235147  5.0820888618199733  3.3837512821226419   F   F   F
 -5.0996952140627290  8.8459918789667906  6.7177431110926111   T   T   T
 -0.5928678787721393  5.0820888618199733  1.7398272513047195   F   F   F
  5.2601300310430288  5.0957169705119885  5.0732305866832847   T   T   T
  7.2731603922450656  5.0786566049474029  6.7200919668526291   T   T   T
  1.7677434315215235  3.0641317865710360  5.0660088280819968   T   T   T
  5.8682907741762556  6.7761184654863440  0.0000000000000000   F   F   F
  2.9341453430759361  8.4701481199735724  0.0000000000000000   F   F   F
  5.8682907741762556  6.7761184654863440  3.3837512821226419   F   F   F
  2.9369128061704544  5.0882963807025874  5.0688431872386372   T   T   T
  5.8891130877164688  6.7849637013084587  6.7750160070486594   T   T   T
  2.9333166054026041  8.4911330850044333  6.7739770735099212   T   T   T
  2.9341453724173707  5.0820888618199733  1.6619386264096183   F   F   F
  5.8682907448347184  0.0000000000000000  1.6619386264096183   F   F   F
 -0.0254963561391758  3.3674499178675994  6.7592869292691704   T   T   T
  2.9311342899332526  1.6614618078090206  6.7629499098667623   T   T   T
  0.0004680360259823  0.0000951769870914  5.0674434914319288   T   T   T
  2.9341454017587973  1.6940296036663725  3.3837512821226419   F   F   F
 -0.0000000293414341  3.3880592581536009  0.0000000000000000   F   F   F
  2.9341454017587973  1.6940296036663725  0.0000000000000000   F   F   F
  0.0000000000000000  0.0000000000000000  1.6619386264096183   F   F   F
 -0.0000000293414341  3.3880592581536009  3.3837512821226419   F   F   F
 -2.9359969273917788  8.4672837078311360  6.7800669291742235   T   T   T
 -0.0276576014407798  6.7880107530156684  6.7625245886064498   T   T   T
  5.8682907154932860  3.3880592581536009  3.3837512821226419   F   F   F
  8.7950249215998593  5.0813125181837684  5.0673564506368178   T   T   T
 -2.9341454017587916  8.4701481199735724  0.0000000000000000   F   F   F
  0.0000000293417355  6.7761184654863440  0.0000000000000000   F   F   F
 -2.9341453724171589  5.0820888618199733  1.6619386264096183   F   F   F
 -2.9341454017587916  8.4701481199735724  3.3837512821226419   F   F   F
  2.9341453430759361  8.4701481199735724  3.3837512821226419   F   F   F
  5.8945597581647764  3.3692610648870969  6.7533305783921165   T   T   T
  8.8021540809070284  1.6900006776751297  6.7809799813725542   T   T   T
  0.0035543549869585 10.1552544961707589  5.0672332163431779   T   T   T
  8.8024361465935126  1.6940296036663725  3.3837512821226419   F   F   F
  5.8682907154932860  3.3880592581536009  0.0000000000000000   F   F   F
  8.8024361465935126  1.6940296036663725  0.0000000000000000   F   F   F
  0.0000000293417355  6.7761184654863440  3.3837512821226419   F   F   F
  8.7984971554023712  5.0778227526108246  8.3113246741006019   T   T   T
  2.9117306613990142  5.0342810921859646  8.1632371912683457   T   T   T
  0.0000900118459828 10.1575106734823741  8.3108784783074476   T   T   T
  5.8672822652509797 10.1582286873982195  8.3137713426073976   T   T   T
  2.8452320924735113  4.8973110483130347  9.7748962210497066   T   T   T
  0.2429295515189763  7.8233774013805935  7.9207215458218263   T   T   T
  5.8976943870357781 -0.0504821163686444  9.9527323471045648   T   T   T
  4.9243916109769117  0.0666368239679344 10.0191786740754747   T   T   T
  6.0957026265174479 -0.8953250670258929  9.4924759551386373   T   T   T
  6.3590953308169169  0.8079157037475062  9.4292018217803690   T   T   T
 -0.0741865698368457  6.9033855061241134  8.4219548857128590   T   T   T
 -1.0196858993055851  6.7115817664083535  8.2340563419504900   T   T   T
  0.4815681122799398  6.1411673405419789  8.1446054719332306   T   T   T
  5.8634350884982931  6.8198570848416518  8.4311221614828149   T   T   T
  6.6169224480777222  6.6387396035462762  7.8417668943751782   T   T   T
  5.1509759595659359  7.1238806368229532  7.8280647553656078   T   T   T
