 H                                      
   1.00000000000000     
    11.7365814896694367    0.0000000000000000    0.0000000000000000
    -5.8682907448347157   10.1641777236399449    0.0000000000000000
     0.0000000000000000    0.0000000000000000   21.8470000000000013
   H 
     2
Selective dynamics
Direct
  0.9999999999717204  0.9999999999710099  0.5653775023041021   T   T   T
  0.0000000000000000  0.0000000000000000  0.5310302100974980   F   F   F
 
             NaN             NaN             NaN
             NaN             NaN             NaN
