Ni   P    H    O    H    O    H    O    H    O    H 
   1.00000000000000     
  11.7365814896693994   0.0000000000000000   0.0000000000000000
  -5.8682907448347201  10.1641777236399005   0.0000000000000000
   0.0000000000000000   0.0000000000000000  21.8470000000000013
Ni   P    H    O    H    O    H    O    H    O    H 
60  32  5  1  2  1  3  1  2  1  2  
Selective dynamics
Direct
  0.1994854716175922  0.0000000000000000  0.0796368952856099 F F F
  0.5001364128690102  0.3666153875026061  0.3096475148692450 T T T
  0.6994854716175922  0.0000000000000000  0.0796368952856099 F F F
  0.6340505440134138  0.6338383880663592  0.3011071672224390 T T T
  0.8013445884852565  0.8019479817925980  0.2289003591170427 T T T
  0.5001675452291897  0.7011997542484658  0.2316159891198500 T T T
  0.8677263807581995  0.5000000000000001  0.0063502276059424 F F F
  0.6322736192418006  0.6322736192418007  0.0063502276059424 F F F
  0.5000000000000001  0.8677263807581928  0.0063502276059424 F F F
  0.5000000000000355  0.6994854716175926  0.0796368952856099 F F F
  0.8005145283824079  0.8005145283824081  0.0796368952856099 F F F
  0.3640970958267150  0.4997130868528455  0.3004498136524651 T T T
  0.1962511229777184  0.4985191436088048  0.2286648007456588 T T T
  0.3005145283824079  0.8005145283824081  0.0796368952856099 F F F
  0.0000000000000285  0.6994854716175926  0.0796368952856099 F F F
  0.8703138789575320  0.0000000000000000  0.1548840244483287 F F F
  0.6296861210424680  0.1296861210424680  0.1548840244483287 F F F
  0.5000000000000000  0.3703138789575250  0.1548840244483287 F F F
  0.4989137182623734  0.8721028622661570  0.3056160080855663 T T T
  0.8703138789575320  0.5000000000000001  0.1548840244483287 F F F
  0.6296861210424680  0.6296861210424683  0.1548840244483287 F F F
  0.5000000000000356  0.8703138789575324  0.1548840244483287 F F F
  0.8711578433891236  0.0000800865863742  0.3047413579212079 T T T
  0.7002582183921007  0.9980515650241092  0.2306448052282196 T T T
  0.0000000000000001  0.8677263807581928  0.0063502276059424 F F F
  0.8005145283824078  0.3005145283824078  0.0796368952856099 F F F
  0.5000000000000000  0.3677263807581996  0.0063502276059424 F F F
  0.6322736192418077  0.1322736192418006  0.0063502276059424 F F F
  0.8677263807581994  0.0000000000000000  0.0063502276059424 F F F
  0.5115971611150039  0.2072701245013454  0.2306881006514266 T T T
  0.7991708272811056  0.2979651131952492  0.2306988842548805 T T T
  0.6276118689507313  0.1246398992529943  0.3059027631798996 T T T
  0.5000000000000000  0.1994854716175923  0.0796368952856099 F F F
  0.1322736192418006  0.6322736192418007  0.0063502276059424 F F F
  0.3677263807582208  0.5000000000000001  0.0063502276059424 F F F
  0.3703138789575248  0.0000000000000000  0.1548840244483287 F F F
  0.1296861210424751  0.1296861210424680  0.1548840244483287 F F F
  0.0000000000000001  0.3703138789575250  0.1548840244483287 F F F
  0.6994854716175922  0.5000000000000001  0.0796368952856099 F F F
  0.1221455408258078  0.1249004813228499  0.3090887457748657 T T T
  0.3720237927220507  0.9980747695523248  0.3042846343719109 T T T
  0.2002076156444936  0.0013002483121091  0.2315305584227022 T T T
  0.3005145283824078  0.3005145283824078  0.0796368952856099 F F F
  0.0000000000000000  0.1994854716175923  0.0796368952856099 F F F
  0.0000000000000000  0.3677263807581996  0.0063502276059424 F F F
  0.1322736192418006  0.1322736192418006  0.0063502276059424 F F F
  0.3677263807581994  0.0000000000000000  0.0063502276059424 F F F
  0.0030162017812470  0.2024181635740284  0.2314277121981286 T T T
  0.9981807687093753  0.3728565791100479  0.3054880784161025 T T T
  0.9977506861328465  0.7004569260710178  0.2305960790374848 T T T
  0.2990395182829416  0.7980254818650476  0.2305989465012710 T T T
  0.1264457145931752  0.6280814452891386  0.3048503078306351 T T T
  0.0000000000000286  0.8703138789575324  0.1548840244483287 F F F
  0.1296861210424680  0.6296861210424683  0.1548840244483287 F F F
  0.3703138789575392  0.5000000000000001  0.1548840244483287 F F F
  0.9987242708300703  0.8713664428206236  0.3046410771858565 T T T
  0.1994854716176065  0.5000000000000001  0.0796368952856099 F F F
  0.6970995057953490  0.4929490731599344  0.2327108971004749 T T T
  0.8737469408187684  0.5000883505620155  0.3057910205369286 T T T
  0.3000453689263126  0.2939330165048329  0.2338192030905437 T T T
  0.8333333350000061  0.6666666650000012  0.0000000000000000 F F F
  0.6666666650000010  0.8333333349999990  0.0000000000000000 F F F
  0.8333333350000061  0.6666666650000012  0.1548840244483287 F F F
  0.4997691848118996  0.4970566820811204  0.2334178185210840 T T T
  0.8347257116881260  0.6657483747671128  0.3089926244465859 T T T
  0.6660144005279588  0.8346460384200477  0.3081070771928776 T T T
  0.5000000000000000  0.5000000000000001  0.0760717089948102 F F F
  0.5000000000000000  0.0000000000000000  0.0760717089948102 F F F
  0.1626927631672721  0.3328485613176388  0.3081028451080087 T T T
  0.3301367255431510  0.1601132454680792  0.3078666221328815 T T T
  0.0002716132347668  0.0007933655740004  0.2314455757121850 T T T
  0.3333333349999990  0.1666666650000011  0.1548840244483287 F F F
  0.1666666650000010  0.3333333349999991  0.0000000000000000 F F F
  0.3333333349999990  0.1666666650000011  0.0000000000000000 F F F
  0.0000000000000000  0.0000000000000000  0.0760717089948102 F F F
  0.1666666650000010  0.3333333349999991  0.1548840244483287 F F F
  0.1659816113723249  0.8335433018563309  0.3097382545961785 T T T
  0.3314148997873865  0.6677670122826812  0.3083898173022511 T T T
  0.6666666650000010  0.3333333349999991  0.1548840244483287 F F F
  0.9991093741440239  0.4998819438918611  0.2310978456460513 T T T
  0.1666666650000011  0.8333333349999990  0.0000000000000000 F F F
  0.3333333350000203  0.6666666650000012  0.0000000000000000 F F F
  0.0000000000000001  0.5000000000000001  0.0760717089948102 F F F
  0.1666666650000011  0.8333333349999990  0.1548840244483287 F F F
  0.6666666650000010  0.8333333349999990  0.1548840244483287 F F F
  0.6724071893216086  0.3304063128091236  0.3086119044893799 T T T
  0.8333842413073193  0.1668015169992834  0.3107505174715310 T T T
  0.5009470925833267  0.9996354755824174  0.2310820903866412 T T T
  0.8333333349999988  0.1666666650000011  0.1548840244483287 F F F
  0.6666666650000010  0.3333333349999991  0.0000000000000000 F F F
  0.8333333349999988  0.1666666650000011  0.0000000000000000 F F F
  0.3333333350000203  0.6666666650000012  0.1548840244483287 F F F
  0.0010211445105192  0.5011422775593327  0.3504307196666748 T T T
  0.4994012853230556  0.9998047535601303  0.3502599497973864 T T T
  0.9931984840717650  0.9960532975214617  0.3502298051979982 T T T
  0.5164970801627362  0.4463067434066244  0.3737635847583480 T T T
  0.2335782805679393  0.1410872996015664  0.3614316246352208 T T T
  0.3882874978212003  0.2388471056671530  0.4796953473040980 T T T
  0.4824580572894686  0.3648540319666129  0.3840160264910774 T T T
  0.2971505759901297  0.2168294804177856  0.4904609259891728 T T T
  0.4161549058186489  0.0270624040536359  0.5119975058320184 T T T
  0.3941500693125282  0.0033850735800065  0.5548746775704974 T T T
  0.3593758683067262  0.9472295521039205  0.4890606354856613 T T T
  0.3946224845943078  0.1600810161880035  0.4910624345147396 T T T
  0.1400222749975071  0.1848887876752478  0.5133875874265732 T T T
  0.1199852072047429  0.2514913350154167  0.4990032993238155 T T T
  0.0689053381229709  0.1014618137226981  0.4981606118754441 T T T
  0.5588513836280398  0.4486404680316209  0.5494988964359926 T T T
  0.6219592447885529  0.5130866077274369  0.5210887650176129 T T T
  0.4977928189008554  0.3725451408920711  0.5233803174936554 T T T
