Ni   P    H    O    H    O    H    O    H    O    H 
   1.00000000000000     
  11.7365814896693994   0.0000000000000000   0.0000000000000000
  -5.8682907448347201  10.1641777236399005   0.0000000000000000
   0.0000000000000000   0.0000000000000000  21.8470000000000013
Ni   P    H    O    H    O    H    O    H    O    H 
60  32  5  1  2  1  3  1  2  1  2  
Selective dynamics
Direct
  0.1994854716175922  0.0000000000000000  0.0796368952856099 F F F
  0.4990411819334121  0.3707230638143166  0.3049032506943740 T T T
  0.6994854716175924  0.0000000000000000  0.0796368952856099 F F F
  0.6254748962278529  0.6255049823761591  0.3050595249184840 T T T
  0.7977325999568581  0.7978006678534241  0.2303262221735945 T T T
  0.4988109553930722  0.7002101115023722  0.2311831803940395 T T T
  0.8677263807581997  0.5000000000000001  0.0063502276059424 F F F
  0.6322736192418008  0.6322736192418008  0.0063502276059424 F F F
  0.5000000000000003  0.8677263807581928  0.0063502276059424 F F F
  0.5000000000000143  0.6994854716175924  0.0796368952856099 F F F
  0.8005145283824080  0.8005145283824081  0.0796368952856099 F F F
  0.3705443334343325  0.4987863960096887  0.3049990177930506 T T T
  0.2059176882012517  0.5099793603421662  0.2294843848994800 T T T
  0.3005145283824079  0.8005145283824081  0.0796368952856099 F F F
  0.0000000000000143  0.6994854716175924  0.0796368952856099 F F F
  0.8703138789575322  0.0000000000000000  0.1548840244483288 F F F
  0.6296861210424680  0.1296861210424680  0.1548840244483288 F F F
  0.5000000000000001  0.3703138789575250  0.1548840244483288 F F F
  0.4993130029372429  0.8729831228093612  0.3054228457545962 T T T
  0.8703138789575322  0.5000000000000001  0.1548840244483288 F F F
  0.6296861210424681  0.6296861210424681  0.1548840244483288 F F F
  0.5000000000000145  0.8703138789575324  0.1548840244483288 F F F
  0.8678678620002249  0.9970270530610622  0.3039991240076699 T T T
  0.7006502214618269  0.9993502427213483  0.2302297227442799 T T T
  0.0000000000000001  0.8677263807581928  0.0063502276059424 F F F
  0.8005145283824079  0.3005145283824078  0.0796368952856099 F F F
  0.5000000000000001  0.3677263807581996  0.0063502276059424 F F F
  0.6322736192418077  0.1322736192418006  0.0063502276059424 F F F
  0.8677263807581994  0.0000000000000000  0.0063502276059424 F F F
  0.5108483269415465  0.2062429763379983  0.2294723671572667 T T T
  0.7985669447892499  0.2981386001492246  0.2306021354258565 T T T
  0.6286384224334509  0.1276871682389728  0.3054106129702922 T T T
  0.5000000000000002  0.1994854716175923  0.0796368952856099 F F F
  0.1322736192418007  0.6322736192418008  0.0063502276059424 F F F
  0.3677263807581996  0.5000000000000001  0.0063502276059424 F F F
  0.3703138789575249  0.0000000000000000  0.1548840244483288 F F F
  0.1296861210424751  0.1296861210424680  0.1548840244483288 F F F
  0.0000000000000000  0.3703138789575250  0.1548840244483288 F F F
  0.6994854716175924  0.5000000000000001  0.0796368952856099 F F F
  0.1188419496714108  0.1193037684442836  0.3133518001593268 T T T
  0.3734793118406455  0.9995986063712765  0.3040020419279326 T T T
  0.2012703086268303  0.0038984546801410  0.2322129411433891 T T T
  0.3005145283824079  0.3005145283824078  0.0796368952856099 F F F
  0.0000000000000001  0.1994854716175923  0.0796368952856099 F F F
  0.0000000000000000  0.3677263807581996  0.0063502276059424 F F F
  0.1322736192418006  0.1322736192418006  0.0063502276059424 F F F
  0.3677263807581994  0.0000000000000000  0.0063502276059424 F F F
  0.0040069854178134  0.2014234907980059  0.2323562566493402 T T T
  0.9997142502909083  0.3735935326911055  0.3041967912913401 T T T
  0.9993237195131119  0.7006406953349437  0.2302467283805286 T T T
  0.2982541214657252  0.7984619510029489  0.2305137634464197 T T T
  0.1278175300926225  0.6286005529934987  0.3052782550947778 T T T
  0.0000000000000144  0.8703138789575324  0.1548840244483288 F F F
  0.1296861210424681  0.6296861210424681  0.1548840244483288 F F F
  0.3703138789575250  0.5000000000000001  0.1548840244483288 F F F
  0.9969779070915200  0.8680074097766449  0.3039817786015985 T T T
  0.1994854716175924  0.5000000000000001  0.0796368952856099 F F F
  0.7003230547691491  0.4989725500431839  0.2311674353690936 T T T
  0.8730797471409144  0.4994046047783819  0.3054255112117214 T T T
  0.2920053867353899  0.2921692924962435  0.2351826084609987 T T T
  0.8333333350000064  0.6666666650000010  0.0000000000000000 F F F
  0.6666666650000014  0.8333333349999990  0.0000000000000000 F F F
  0.8333333350000064  0.6666666650000010  0.1548840244483288 F F F
  0.4987458741550074  0.4988192215882031  0.2312615927616681 T T T
  0.8304302856631540  0.6629261652363272  0.3087407461687193 T T T
  0.6628663687966893  0.8304234465757748  0.3087215227696265 T T T
  0.5000000000000002  0.5000000000000001  0.0760717089948102 F F F
  0.5000000000000000  0.0000000000000000  0.0760717089948102 F F F
  0.1648501332989236  0.3346592033656857  0.3102416846146751 T T T
  0.3353830328846906  0.1651712743589300  0.3094807940426421 T T T
  0.0007282360107130  0.0008143573918626  0.2320637890942304 T T T
  0.3333333349999991  0.1666666650000011  0.1548840244483288 F F F
  0.1666666650000011  0.3333333349999990  0.0000000000000000 F F F
  0.3333333349999991  0.1666666650000011  0.0000000000000000 F F F
  0.0000000000000000  0.0000000000000000  0.0760717089948102 F F F
  0.1666666650000011  0.3333333349999990  0.1548840244483288 F F F
  0.1674345494157498  0.8344513300452153  0.3083894691950158 T T T
  0.3339066724501676  0.6672574876205289  0.3097885181843477 T T T
  0.6666666650000013  0.3333333349999990  0.1548840244483288 F F F
  0.0002336691155969  0.5011173224277998  0.2310476597946713 T T T
  0.1666666650000011  0.8333333349999990  0.0000000000000000 F F F
  0.3333333349999991  0.6666666650000010  0.0000000000000000 F F F
  0.0000000000000001  0.5000000000000001  0.0760717089948102 F F F
  0.1666666650000011  0.8333333349999990  0.1548840244483288 F F F
  0.6666666650000014  0.8333333349999990  0.1548840244483288 F F F
  0.6674918886525942  0.3339190452462443  0.3098285907717667 T T T
  0.8345892158563447  0.1676091187715787  0.3086605359095453 T T T
  0.5013251345821018  0.0002679060532500  0.2310363120445569 T T T
  0.8333333349999990  0.1666666650000011  0.1548840244483288 F F F
  0.6666666650000013  0.3333333349999990  0.0000000000000000 F F F
  0.8333333349999990  0.1666666650000011  0.0000000000000000 F F F
  0.3333333349999991  0.6666666650000010  0.1548840244483288 F F F
  0.0027083606255265  0.5013269985320661  0.3498374212281919 T T T
  0.5012588554384970  0.0027519877741328  0.3498224216457341 T T T
  0.9894741342902030  0.9893048499466404  0.3506214489828830 T T T
  0.4963432431076584  0.4963209822521782  0.3495401563222335 T T T
  0.2363978085337339  0.1339252135505410  0.3621386234926535 T T T
  0.1104284901474280  0.2117503117065790  0.4701696114170873 T T T
  0.1336909981449343  0.2372510332154255  0.3640577611074908 T T T
  0.0172212820789294  0.1895670778776258  0.4750528455873250 T T T
  0.1120459260570773  0.9844600073514960  0.4997571614364207 T T T
  0.0391240865968621  0.9309591985807404  0.5272361569443647 T T T
  0.1048301593287617  0.9254611860067430  0.4667643274042971 T T T
  0.1102998426741445  0.1286669000785133  0.4794050646755154 T T T
  0.8535160068805008  0.1475731794569211  0.4882966477986443 T T T
  0.8311029445528758  0.2132941642068955  0.4752410538808753 T T T
  0.7896127364297215  0.0657661747050737  0.4686565489466324 T T T
  0.2743200151733550  0.4130211828365391  0.5465727591318988 T T T
  0.3342035399212977  0.4844511304563948  0.5199570504635134 T T T
  0.2155061155921627  0.3406054890825462  0.5183221292918230 T T T
