Ni   P    H    O    H    O    H    O    H    O    H 
   1.00000000000000     
  11.7365814896693994   0.0000000000000000   0.0000000000000000
  -5.8682907448347201  10.1641777236399005   0.0000000000000000
   0.0000000000000000   0.0000000000000000  21.8470000000000013
Ni   P    H    O    H    O    H    O    H    O    H 
60  32  5  1  1  1  3  1  2  1  3  
Selective dynamics
Direct
  0.1994854716175922  0.0000000000000000  0.0796368952856099 F F F
  0.5039916572541829  0.3779349689410650  0.3083923087819672 T T T
  0.6994854716175924  0.0000000000000000  0.0796368952856099 F F F
  0.6296094438135449  0.6305797963957047  0.3045301975044932 T T T
  0.7993034385797348  0.7993696320244129  0.2305707859177131 T T T
  0.5010593159291160  0.7023613385705015  0.2305964586780148 T T T
  0.8677263807582011  0.5000000000000001  0.0063502276059424 F F F
  0.6322736192418008  0.6322736192418008  0.0063502276059424 F F F
  0.5000000000000006  0.8677263807581931  0.0063502276059424 F F F
  0.5000000000001117  0.6994854716175924  0.0796368952856099 F F F
  0.8005145283824080  0.8005145283824081  0.0796368952856099 F F F
  0.3728895895447134  0.5022066852456610  0.3045369067040244 T T T
  0.2014430913436903  0.5001726533722792  0.2305560011618024 T T T
  0.3005145283824079  0.8005145283824081  0.0796368952856099 F F F
  0.0000000000000745  0.6994854716175924  0.0796368952856099 F F F
  0.8703138789575322  0.0000000000000000  0.1548840244483289 F F F
  0.6296861210424680  0.1296861210424680  0.1548840244483289 F F F
  0.5000000000000001  0.3703138789575251  0.1548840244483289 F F F
  0.5002411455160142  0.8733127868293546  0.3052032165310485 T T T
  0.8703138789575335  0.5000000000000001  0.1548840244483289 F F F
  0.6296861210424681  0.6296861210424681  0.1548840244483289 F F F
  0.5000000000001119  0.8703138789575328  0.1548840244483289 F F F
  0.8738445639078286  0.0013288653960809  0.3052981951816563 T T T
  0.7015166158157438  0.0008055306385752  0.2310981914961038 T T T
  0.0000000000000002  0.8677263807581931  0.0063502276059424 F F F
  0.8005145283824079  0.3005145283824078  0.0796368952856099 F F F
  0.5000000000000009  0.3677263807581996  0.0063502276059424 F F F
  0.6322736192418077  0.1322736192418006  0.0063502276059424 F F F
  0.8677263807581994  0.0000000000000000  0.0063502276059424 F F F
  0.5007707903594544  0.2036179409595923  0.2322529874182731 T T T
  0.7991855171580972  0.2992278659838632  0.2307049751723153 T T T
  0.6273412005675263  0.1280122494518731  0.3055486439746011 T T T
  0.5000000000000002  0.1994854716175923  0.0796368952856099 F F F
  0.1322736192418007  0.6322736192418008  0.0063502276059424 F F F
  0.3677263807582660  0.5000000000000001  0.0063502276059424 F F F
  0.3703138789575249  0.0000000000000000  0.1548840244483289 F F F
  0.1296861210424751  0.1296861210424680  0.1548840244483289 F F F
  0.0000000000000000  0.3703138789575251  0.1548840244483289 F F F
  0.6994854716175931  0.5000000000000001  0.0796368952856099 F F F
  0.1289206669422784  0.1281855562794554  0.3043791316660379 T T T
  0.3717086664506936  0.9998895998499646  0.3044187426751946 T T T
  0.1952462647213498  0.9897193478483082  0.2293436781599605 T T T
  0.3005145283824083  0.3005145283824078  0.0796368952856099 F F F
  0.0000000000000001  0.1994854716175923  0.0796368952856099 F F F
  0.0000000000000302  0.3677263807581996  0.0063502276059424 F F F
  0.1322736192418006  0.1322736192418006  0.0063502276059424 F F F
  0.3677263807581994  0.0000000000000000  0.0063502276059424 F F F
  0.0008985462327159  0.2016552298416850  0.2306928752096151 T T T
  0.0004873540686983  0.3721325802198223  0.3049895213020540 T T T
  0.9997484492160995  0.7013966269573768  0.2309603426744717 T T T
  0.2991045599067468  0.7991989101598764  0.2310271111185742 T T T
  0.1274735707333477  0.6270261738967047  0.3053447789701151 T T T
  0.0000000000000746  0.8703138789575328  0.1548840244483289 F F F
  0.1296861210424681  0.6296861210424681  0.1548840244483289 F F F
  0.3703138789575915  0.5000000000000001  0.1548840244483289 F F F
  0.0000522356386247  0.8727883223385082  0.3058030632964477 T T T
  0.1994854716176300  0.5000000000000001  0.0796368952856099 F F F
  0.7001585701948432  0.4987929655471808  0.2313127316285442 T T T
  0.8740180758751134  0.5009543123961627  0.3052414593444848 T T T
  0.3018993091821986  0.2991341935035443  0.2317894650235552 T T T
  0.8333333350000075  0.6666666650000010  0.0000000000000000 F F F
  0.6666666650000019  0.8333333349999990  0.0000000000000000 F F F
  0.8333333350000075  0.6666666650000010  0.1548840244483289 F F F
  0.5008015997525599  0.5006986090024689  0.2314214826413882 T T T
  0.8343474887370632  0.6671619668708398  0.3101247334441067 T T T
  0.6678935237325454  0.8359656945144953  0.3091428651120177 T T T
  0.5000000000000009  0.5000000000000001  0.0760717089948102 F F F
  0.5000000000000000  0.0000000000000000  0.0760717089948102 F F F
  0.1680613386612141  0.3338878997171657  0.3092249143538386 T T T
  0.3333356365928569  0.1655167186831118  0.3089484517759494 T T T
  0.9998056228450463  0.9993380724388297  0.2312430728414520 T T T
  0.3333333349999992  0.1666666650000011  0.1548840244483289 F F F
  0.1666666650000011  0.3333333349999990  0.0000000000000000 F F F
  0.3333333349999992  0.1666666650000011  0.0000000000000000 F F F
  0.0000000000000000  0.0000000000000000  0.0760717089948102 F F F
  0.1666666650000011  0.3333333349999990  0.1548840244483289 F F F
  0.1660452446126322  0.8320768850072511  0.3098423616286014 T T T
  0.3334163642570198  0.6681813202263881  0.3095114845540365 T T T
  0.6666666650000013  0.3333333349999990  0.1548840244483289 F F F
  0.0004624765562090  0.5000956717591689  0.2312323920940389 T T T
  0.1666666650000011  0.8333333349999990  0.0000000000000000 F F F
  0.3333333350000656  0.6666666650000010  0.0000000000000000 F F F
  0.0000000000000373  0.5000000000000001  0.0760717089948102 F F F
  0.1666666650000011  0.8333333349999990  0.1548840244483289 F F F
  0.6666666650000019  0.8333333349999990  0.1548840244483289 F F F
  0.6699569266108305  0.3344471595945325  0.3085259055485930 T T T
  0.8330864773830268  0.1668325770644027  0.3101006820152775 T T T
  0.5005279621760033  0.0003277029660814  0.2311845882202875 T T T
  0.8333333349999990  0.1666666650000011  0.1548840244483289 F F F
  0.6666666650000013  0.3333333349999990  0.0000000000000000 F F F
  0.8333333349999990  0.1666666650000011  0.0000000000000000 F F F
  0.3333333350000656  0.6666666650000010  0.1548840244483289 F F F
  0.0006530400016162  0.4993414491325107  0.3501912975031587 T T T
  0.4991509252882858  0.0018303182371406  0.3498696649868382 T T T
  0.0023244981962183  0.0006231397372893  0.3501266487405211 T T T
  0.5040653706549231  0.5077039734858673  0.3496865237952737 T T T
  0.3514254118695809  0.2065568257612163  0.4679262725514187 T T T
  0.4041033274213165  0.2502520337994387  0.5042730604309120 T T T
  0.4959900300768824  0.2479896264023604  0.5028346416383810 T T T
  0.4452602192505948  0.4782339979666188  0.5118680868266087 T T T
  0.5274654660250006  0.5417901227528676  0.4920742335655436 T T T
  0.3753593050719193  0.4878044312284078  0.4926170696696262 T T T
  0.4224687284532885  0.3508756547063551  0.5061004651745838 T T T
  0.6119570930111303  0.2450191693989846  0.5054562497655509 T T T
  0.6020977885356480  0.1635849451883979  0.4884464018098928 T T T
  0.6825798165431106  0.3173893308886638  0.4825738656424772 T T T
  0.1798163832902623  0.0237493828896478  0.5733330947570033 T T T
  0.1316531978266919  0.9757666600413006  0.5369750675767522 T T T
  0.2568567081849490  0.1020670976605709  0.5571989941792593 T T T
  0.4168321049122442  0.2702801747382085  0.3606369253139356 T T T
