Ni   P    H    O    H    O    H    O    H    O    H 
   1.00000000000000     
  11.7365814896693994   0.0000000000000000   0.0000000000000000
  -5.8682907448347201  10.1641777236399005   0.0000000000000000
   0.0000000000000000   0.0000000000000000  21.8470000000000013
Ni   P    H    O    H    O    H    O    H    O    H 
60  36  7  1  2  1  3  1  2  1  2  
Selective dynamics
Direct
  0.1994854716175922  0.0000000000000000  0.0796368952856099 F F F
  0.4984324336722292  0.3714497328889059  0.3040986738174087 T T T
  0.6994854716175924  0.0000000000000000  0.0796368952856099 F F F
  0.6321382421219732  0.6299060818252488  0.3077086019152913 T T T
  0.8021456647330895  0.8014212790863038  0.2322539459366280 T T T
  0.4976906332154332  0.6973738032329352  0.2323687683151786 T T T
  0.8677263807582011  0.5000000000000001  0.0063502276059424 F F F
  0.6322736192418008  0.6322736192418008  0.0063502276059424 F F F
  0.5000000000000006  0.8677263807581931  0.0063502276059424 F F F
  0.5000000000000869  0.6994854716175924  0.0796368952856099 F F F
  0.8005145283824080  0.8005145283824081  0.0796368952856099 F F F
  0.3662355154774462  0.4963456480847999  0.3086611177580909 T T T
  0.2012247606493284  0.5022051200873432  0.2321708798041663 T T T
  0.3005145283824079  0.8005145283824081  0.0796368952856099 F F F
  0.0000000000000508  0.6994854716175924  0.0796368952856099 F F F
  0.8703138789575322  0.0000000000000000  0.1548840244483289 F F F
  0.6296861210424680  0.1296861210424680  0.1548840244483289 F F F
  0.5000000000000001  0.3703138789575251  0.1548840244483289 F F F
  0.4972714045851379  0.8660519061418162  0.3079650927414240 T T T
  0.8703138789575335  0.5000000000000001  0.1548840244483289 F F F
  0.6296861210424681  0.6296861210424681  0.1548840244483289 F F F
  0.5000000000000870  0.8703138789575328  0.1548840244483289 F F F
  0.8636917064643074  0.0010981599580452  0.3068377690687171 T T T
  0.6992592006811045  0.0029741727804299  0.2317629288974910 T T T
  0.0000000000000002  0.8677263807581931  0.0063502276059424 F F F
  0.8005145283824079  0.3005145283824078  0.0796368952856099 F F F
  0.5000000000000009  0.3677263807581996  0.0063502276059424 F F F
  0.6322736192418077  0.1322736192418006  0.0063502276059424 F F F
  0.8677263807581994  0.0000000000000000  0.0063502276059424 F F F
  0.5039099894283879  0.1995187335431456  0.2303675332224404 T T T
  0.7955778762248600  0.3023584487253193  0.2323120925473103 T T T
  0.6294335210072372  0.1333184785828282  0.3082871920326706 T T T
  0.5000000000000002  0.1994854716175923  0.0796368952856099 F F F
  0.1322736192418007  0.6322736192418008  0.0063502276059424 F F F
  0.3677263807582359  0.5000000000000001  0.0063502276059424 F F F
  0.3703138789575249  0.0000000000000000  0.1548840244483289 F F F
  0.1296861210424751  0.1296861210424680  0.1548840244483289 F F F
  0.0000000000000000  0.3703138789575251  0.1548840244483289 F F F
  0.6994854716175931  0.5000000000000001  0.0796368952856099 F F F
  0.1366558295784029  0.1355809159504294  0.3084645707517989 T T T
  0.3722110816424654  0.0012792442014915  0.3033313640370784 T T T
  0.1974655659337008  0.0030073973291057  0.2307718292197790 T T T
  0.3005145283824083  0.3005145283824078  0.0796368952856099 F F F
  0.0000000000000001  0.1994854716175923  0.0796368952856099 F F F
  0.0000000000000148  0.3677263807581996  0.0063502276059424 F F F
  0.1322736192418006  0.1322736192418006  0.0063502276059424 F F F
  0.3677263807581994  0.0000000000000000  0.0063502276059424 F F F
  0.0016363882467914  0.1957826299462174  0.2307315565437753 T T T
  0.9991634139458713  0.3707346138082271  0.3026621427542374 T T T
  0.0018816043945492  0.6990543434511196  0.2317651526006244 T T T
  0.3006554025796250  0.7986165962217400  0.2320816484774011 T T T
  0.1320130779240541  0.6298320995716694  0.3082626320571960 T T T
  0.0000000000000509  0.8703138789575328  0.1548840244483289 F F F
  0.1296861210424681  0.6296861210424681  0.1548840244483289 F F F
  0.3703138789575613  0.5000000000000001  0.1548840244483289 F F F
  0.0015626519613201  0.8638626462803279  0.3070058591327179 T T T
  0.1994854716176144  0.5000000000000001  0.0796368952856099 F F F
  0.7003176388644283  0.5002259037735263  0.2322571643599360 T T T
  0.8666393567920534  0.4965037658400960  0.3088649777502851 T T T
  0.2981207649593970  0.3012940016695834  0.2316600336806071 T T T
  0.8333333350000075  0.6666666650000010  0.0000000000000000 F F F
  0.6666666650000019  0.8333333349999990  0.0000000000000000 F F F
  0.8333333350000075  0.6666666650000010  0.1548840244483289 F F F
  0.4989622868494652  0.4997889374187016  0.2318807329779049 T T T
  0.8332812698577273  0.6646414990527676  0.3066526425068458 T T T
  0.6653289673497002  0.8320853688559120  0.3050725852058969 T T T
  0.5000000000000009  0.5000000000000001  0.0760717089948102 F F F
  0.5000000000000000  0.0000000000000000  0.0760717089948102 F F F
  0.1621445439190162  0.3335284307535971  0.3093774447942871 T T T
  0.3389414165648550  0.1680273413623946  0.3100729382958604 T T T
  0.0012597221735554  0.0007765934697022  0.2327571240435609 T T T
  0.3333333349999992  0.1666666650000011  0.1548840244483289 F F F
  0.1666666650000011  0.3333333349999990  0.0000000000000000 F F F
  0.3333333349999992  0.1666666650000011  0.0000000000000000 F F F
  0.0000000000000000  0.0000000000000000  0.0760717089948102 F F F
  0.1666666650000011  0.3333333349999990  0.1548840244483289 F F F
  0.1728748787066613  0.8362500196879366  0.3077746839990247 T T T
  0.3322101435664708  0.6643049846327598  0.3076888315610545 T T T
  0.6666666650000013  0.3333333349999990  0.1548840244483289 F F F
  0.9991635091767415  0.5007576837554623  0.2318995326351098 T T T
  0.1666666650000011  0.8333333349999990  0.0000000000000000 F F F
  0.3333333350000354  0.6666666650000010  0.0000000000000000 F F F
  0.0000000000000148  0.5000000000000001  0.0760717089948102 F F F
  0.1666666650000011  0.8333333349999990  0.1548840244483289 F F F
  0.6666666650000019  0.8333333349999990  0.1548840244483289 F F F
  0.6612708656942468  0.3341410630036707  0.3105031359166762 T T T
  0.8346895328417949  0.1720482654940662  0.3076544705102284 T T T
  0.5009246846885803  0.0006615721795710  0.2318847948988617 T T T
  0.8333333349999990  0.1666666650000011  0.1548840244483289 F F F
  0.6666666650000013  0.3333333349999990  0.0000000000000000 F F F
  0.8333333349999990  0.1666666650000011  0.0000000000000000 F F F
  0.3333333350000354  0.6666666650000010  0.1548840244483289 F F F
  0.0002830585758231  0.5441078641254157  0.3865303271115476 T T T
  0.4999691770976198  0.5405381525140707  0.3860596862193849 T T T
  0.5393010158505053  0.9995338714766819  0.3856398074996201 T T T
  0.9980503939547292  0.9982767018697253  0.3740688120455612 T T T
  0.5019402172337517  0.6346312477042112  0.4283770908240722 T T T
  0.5012548354412131  0.4539040044132710  0.4313642303442462 T T T
  0.6323851392491654  0.0005220489660936  0.4282028530106212 T T T
  0.4505177441907040  0.9970746988672019  0.4307645719234518 T T T
  0.0018865402391551  0.4572716502440262  0.4315868712178081 T T T
  0.0006799317338435  0.6375102106779368  0.4287191264812233 T T T
  0.9893206871445775  0.9903833278505624  0.4393673735413536 T T T
  0.0194182334384390  0.0121205249197807  0.5624358012332141 T T T
  0.0829962243389376  0.0649220617854390  0.5305505100452889 T T T
  0.9227092127346030  0.0018674945256615  0.5517110581243984 T T T
  0.0017017732296413  0.7927109260947123  0.5669166737408333 T T T
  0.9235500799782700  0.7277522722361863  0.5448445865127759 T T T
  0.0771415724096303  0.7949875772741588  0.5467137460988638 T T T
  0.0119382157931037  0.9158220249614337  0.5635669789135230 T T T
  0.8018269502630424  0.9875900964492206  0.5419242269808379 T T T
  0.8097105804290303  0.0654780485337096  0.5216365724759215 T T T
  0.7490978885222994  0.9124500795691266  0.5151689775717151 T T T
  0.1764211902828070  0.2313938159755362  0.6474087422153458 T T T
  0.2245204991260830  0.2965969358582434  0.6158120369972380 T T T
  0.1179860344506819  0.1515726449896209  0.6243596897350263 T T T
