Ni   P    H    O    H    O    H    O    H    O    H 
   1.00000000000000     
  11.7365814896693994   0.0000000000000000   0.0000000000000000
  -5.8682907448347201  10.1641777236399005   0.0000000000000000
   0.0000000000000000   0.0000000000000000  21.8470000000000013
Ni   P    H    O    H    O    H    O    H    O    H 
60  32  4  1  1  1  3  1  2  1  2  
Selective dynamics
Direct
  0.1994854716175922  0.0000000000000000  0.0796368952856099 F F F
  0.5000446652510884  0.3725275971670591  0.3051757898695092 T T T
  0.6994854716175924  0.0000000000000000  0.0796368952856099 F F F
  0.6274833374661757  0.6275043298441624  0.3051801110081081 T T T
  0.7983961018841448  0.7984928879657036  0.2307291743777289 T T T
  0.5001084356940303  0.7017221626210711  0.2307360623437137 T T T
  0.8677263807581996  0.5000000000000001  0.0063502276059424 F F F
  0.6322736192418008  0.6322736192418008  0.0063502276059424 F F F
  0.5000000000000002  0.8677263807581926  0.0063502276059424 F F F
  0.5000000000000711  0.6994854716175924  0.0796368952856099 F F F
  0.8005145283824080  0.8005145283824081  0.0796368952856099 F F F
  0.3725062659552189  0.5000245417226755  0.3051543063998700 T T T
  0.2015000596041773  0.4999470273004971  0.2306992259125880 T T T
  0.3005145283824079  0.8005145283824081  0.0796368952856099 F F F
  0.0000000000000497  0.6994854716175924  0.0796368952856099 F F F
  0.8703138789575322  0.0000000000000000  0.1548840244483288 F F F
  0.6296861210424680  0.1296861210424680  0.1548840244483288 F F F
  0.5000000000000000  0.3703138789575250  0.1548840244483288 F F F
  0.5000491522753598  0.8725129430915584  0.3053336479514694 T T T
  0.8703138789575321  0.5000000000000001  0.1548840244483288 F F F
  0.6296861210424681  0.6296861210424681  0.1548840244483288 F F F
  0.5000000000000713  0.8703138789575323  0.1548840244483288 F F F
  0.8723899958711385  0.9999558774826821  0.3052625372368764 T T T
  0.7015349634839287  0.9999589805019041  0.2307657962933771 T T T
  0.0000000000000001  0.8677263807581926  0.0063502276059424 F F F
  0.8005145283824079  0.3005145283824078  0.0796368952856099 F F F
  0.5000000000000001  0.3677263807581995  0.0063502276059424 F F F
  0.6322736192418077  0.1322736192418006  0.0063502276059424 F F F
  0.8677263807581994  0.0000000000000000  0.0063502276059424 F F F
  0.5000136576058034  0.2015398939616601  0.2307112489362503 T T T
  0.7984514886018613  0.2985104530263882  0.2307414244968444 T T T
  0.6275857247588729  0.1276538273548519  0.3052315818313240 T T T
  0.5000000000000002  0.1994854716175923  0.0796368952856099 F F F
  0.1322736192418007  0.6322736192418008  0.0063502276059424 F F F
  0.3677263807582350  0.5000000000000001  0.0063502276059424 F F F
  0.3703138789575249  0.0000000000000000  0.1548840244483288 F F F
  0.1296861210424751  0.1296861210424680  0.1548840244483288 F F F
 -0.0000000000000000  0.3703138789575250  0.1548840244483288 F F F
  0.6994854716175923  0.5000000000000001  0.0796368952856099 F F F
  0.1275551769153666  0.1275568360575159  0.3053475576925719 T T T
  0.3724296695599094  0.0000360147300154  0.3052165261621534 T T T
  0.2015718116247237  0.0001132861091695  0.2307378157497875 T T T
  0.3005145283824078  0.3005145283824078  0.0796368952856099 F F F
  0.0000000000000000  0.1994854716175923  0.0796368952856099 F F F
  0.0000000000000143  0.3677263807581995  0.0063502276059424 F F F
  0.1322736192418006  0.1322736192418006  0.0063502276059424 F F F
  0.3677263807581994  0.0000000000000000  0.0063502276059424 F F F
  0.0000606751810897  0.2015507744579746  0.2307553505383293 T T T
  0.0000199701297816  0.3724213879915423  0.3052373848218313 T T T
  0.0000340909623782  0.7015436797731263  0.2307270247656991 T T T
  0.2985309564634632  0.7984494144414225  0.2307400426159297 T T T
  0.1276481098704610  0.6275779622380859  0.3052204251539044 T T T
  0.0000000000000499  0.8703138789575323  0.1548840244483288 F F F
  0.1296861210424681  0.6296861210424681  0.1548840244483288 F F F
  0.3703138789575605  0.5000000000000001  0.1548840244483288 F F F
  0.9999809775138169  0.8723927320616829  0.3052024249408792 T T T
  0.1994854716176136  0.5000000000000001  0.0796368952856099 F F F
  0.7016782966689220  0.5000600872723644  0.2307285922385151 T T T
  0.8725157610816564  0.5000551399504256  0.3053075965743025 T T T
  0.2983921611177643  0.2983790246115414  0.2307486003009581 T T T
  0.8333333350000063  0.6666666650000010  0.0000000000000000 F F F
  0.6666666650000013  0.8333333349999990  0.0000000000000000 F F F
  0.8333333350000063  0.6666666650000010  0.1548840244483288 F F F
  0.5000063502317180  0.5000064767149285  0.2314268242707773 T T T
  0.8332725218821602  0.6666333879104654  0.3089447132561685 T T T
  0.6666013366757990  0.8332816352358864  0.3092360701522529 T T T
  0.5000000000000001  0.5000000000000001  0.0760717089948102 F F F
  0.5000000000000000  0.0000000000000000  0.0760717089948102 F F F
  0.1666818900215106  0.3333297642718512  0.3089313200237352 T T T
  0.3333457580209939  0.1666968232775889  0.3089154798489087 T T T
  0.0000127160297523  0.0000535006310101  0.2314577690056387 T T T
  0.3333333349999991  0.1666666650000011  0.1548840244483288 F F F
  0.1666666650000011  0.3333333349999990  0.0000000000000000 F F F
  0.3333333349999991  0.1666666650000011  0.0000000000000000 F F F
  0.0000000000000000  0.0000000000000000  0.0760717089948102 F F F
  0.1666666650000011  0.3333333349999990  0.1548840244483288 F F F
  0.1666716242714788  0.8333259804031560  0.3089229855911184 T T T
  0.3334474037289754  0.6667433463909009  0.3089231285364891 T T T
  0.6666666650000013  0.3333333349999990  0.1548840244483288 F F F
  0.9999885334899113  0.4999993517859569  0.2314413074972787 T T T
  0.1666666650000011  0.8333333349999990  0.0000000000000000 F F F
  0.3333333350000346  0.6666666650000010  0.0000000000000000 F F F
  0.0000000000000143  0.5000000000000001  0.0760717089948102 F F F
  0.1666666650000011  0.8333333349999990  0.1548840244483288 F F F
  0.6666666650000013  0.8333333349999990  0.1548840244483288 F F F
  0.6667667546138416  0.3334553645744276  0.3089957068238570 T T T
  0.8333054648569003  0.1666425113793038  0.3089316659006879 T T T
  0.5000445113081273  0.9999873155452242  0.2314470434374636 T T T
  0.8333333349999990  0.1666666650000011  0.1548840244483288 F F F
  0.6666666650000013  0.3333333349999990  0.0000000000000000 F F F
  0.8333333349999990  0.1666666650000011  0.0000000000000000 F F F
  0.3333333350000346  0.6666666650000010  0.1548840244483288 F F F
  0.9998581372460278  0.5000392754872712  0.3500274032934387 T T T
  0.5000437825289593  0.9998911906214987  0.3500257322346784 T T T
  0.0000685098526648  0.0000158524195800  0.3500338083113648 T T T
  0.5006041600874810  0.5006427159257966  0.3498497553119254 T T T
  0.4761845730670981  0.4751210521489705  0.4775413457826647 T T T
  0.5614805753512375  0.4779472270978577  0.4832606590256417 T T T
  0.5202078806786546  0.7240669144111742  0.5026006975657530 T T T
  0.6110375670190521  0.7918185578710738  0.4949875839870319 T T T
  0.4665144387945939  0.7492635685212089  0.4784908260359101 T T T
  0.4933652884105564  0.5655521102295256  0.4858612359808394 T T T
  0.7087439204996083  0.4760300554795791  0.4967921989078864 T T T
  0.7048841410561190  0.3953858462772501  0.4827915403665240 T T T
  0.7856556461845422  0.5475920804077654  0.4770405660708541 T T T
  0.2704131810619933  0.2729430440346433  0.5355557459050202 T T T
  0.2154876520173226  0.2151484047748149  0.5029674498578270 T T T
  0.3460807173564224  0.3477541091373613  0.5141661258795520 T T T
