Ni   P    H    O    H    O    H    O    H    O    H 
   1.00000000000000     
  11.7365814896693994   0.0000000000000000   0.0000000000000000
  -5.8682907448347201  10.1641777236399005   0.0000000000000000
   0.0000000000000000   0.0000000000000000  21.8470000000000013
Ni   P    H    O    H    O    H    O    H    O    H 
60  36  6  1  2  1  3  1  2  1  3  
Selective dynamics
Direct
  0.1994854716175922  0.0000000000000000  0.0796368952856099 F F F
  0.4987071177774141  0.3701126619571511  0.3030403686132885 T T T
  0.6994854716175922  0.0000000000000000  0.0796368952856099 F F F
  0.6323998189476114  0.6301850239963116  0.3081540044794622 T T T
  0.7988420451926501  0.8006508960550676  0.2317222942692894 T T T
  0.4986653006275006  0.6981418772776919  0.2321183070032191 T T T
  0.8677263807581994  0.5000000000000000  0.0063502276059424 F F F
  0.6322736192418006  0.6322736192418006  0.0063502276059424 F F F
  0.5000000000000000  0.8677263807581923  0.0063502276059424 F F F
  0.5000000000000426  0.6994854716175922  0.0796368952856099 F F F
  0.8005145283824078  0.8005145283824078  0.0796368952856099 F F F
  0.3666525828521259  0.4970193306472979  0.3081408564475367 T T T
  0.2019984791767513  0.5041502576591057  0.2320338387271335 T T T
  0.3005145283824078  0.8005145283824078  0.0796368952856099 F F F
  0.0000000000000213  0.6994854716175922  0.0796368952856099 F F F
  0.8703138789575320  0.0000000000000000  0.1548840244483287 F F F
  0.6296861210424680  0.1296861210424680  0.1548840244483287 F F F
  0.5000000000000000  0.3703138789575249  0.1548840244483287 F F F
  0.4977366208851919  0.8659966693908103  0.3076562863979575 T T T
  0.8703138789575320  0.5000000000000000  0.1548840244483287 F F F
  0.6296861210424680  0.6296861210424680  0.1548840244483287 F F F
  0.5000000000000426  0.8703138789575320  0.1548840244483287 F F F
  0.8661936313144807  0.9986930836241186  0.3069059098017206 T T T
  0.7005309671821180  0.0029495015028331  0.2317904248981009 T T T
  0.0000000000000000  0.8677263807581923  0.0063502276059424 F F F
  0.8005145283824078  0.3005145283824078  0.0796368952856099 F F F
  0.5000000000000000  0.3677263807581994  0.0063502276059424 F F F
  0.6322736192418077  0.1322736192418006  0.0063502276059424 F F F
  0.8677263807581994  0.0000000000000000  0.0063502276059424 F F F
  0.5030599109862308  0.1986098328417114  0.2304303962927392 T T T
  0.7955828864831460  0.3033653072781561  0.2322412865241930 T T T
  0.6303393222382496  0.1332930611636698  0.3079496909808839 T T T
  0.5000000000000000  0.1994854716175922  0.0796368952856099 F F F
  0.1322736192418006  0.6322736192418006  0.0063502276059424 F F F
  0.3677263807581994  0.5000000000000000  0.0063502276059424 F F F
  0.3703138789575249  0.0000000000000000  0.1548840244483287 F F F
  0.1296861210424751  0.1296861210424680  0.1548840244483287 F F F
  0.0000000000000000  0.3703138789575249  0.1548840244483287 F F F
  0.6994854716175922  0.5000000000000000  0.0796368952856099 F F F
  0.1337905140369244  0.1306664135201601  0.3079009293825905 T T T
  0.3723115571983442  0.0005109847887326  0.3040692705202446 T T T
  0.2008201308122608  0.0059279451236947  0.2305487424289225 T T T
  0.3005145283824078  0.3005145283824078  0.0796368952856099 F F F
  0.0000000000000000  0.1994854716175922  0.0796368952856099 F F F
  0.0000000000000000  0.3677263807581994  0.0063502276059424 F F F
  0.1322736192418006  0.1322736192418006  0.0063502276059424 F F F
  0.3677263807581994  0.0000000000000000  0.0063502276059424 F F F
  0.0012415214116430  0.1960702526671270  0.2298843772435220 T T T
  0.9997296693200468  0.3690925525903879  0.3018441559440461 T T T
  0.0013792228277936  0.6971700817982480  0.2301099512508742 T T T
  0.2990126094317560  0.7999300352470726  0.2319465890418755 T T T
  0.1319940716502259  0.6315914878535835  0.3078930127642252 T T T
  0.0000000000000213  0.8703138789575320  0.1548840244483287 F F F
  0.1296861210424680  0.6296861210424680  0.1548840244483287 F F F
  0.3703138789575249  0.5000000000000000  0.1548840244483287 F F F
  0.0013557608433601  0.8697779944512192  0.3025472103259332 T T T
  0.1994854716175922  0.5000000000000000  0.0796368952856099 F F F
  0.7032118398503755  0.5051214717565884  0.2322807990530222 T T T
  0.8670431437155628  0.4982487594290532  0.3084104290447840 T T T
  0.2975276758367400  0.3002392888550318  0.2318885503558263 T T T
  0.8333333350000061  0.6666666650000010  0.0000000000000000 F F F
  0.6666666650000010  0.8333333349999990  0.0000000000000000 F F F
  0.8333333350000061  0.6666666650000010  0.1548840244483287 F F F
  0.4997295187918951  0.5003874432256197  0.2319858915287867 T T T
  0.8360928533992649  0.6693479309160892  0.3078424993703877 T T T
  0.6659034970001940  0.8322249455017641  0.3058002318362298 T T T
  0.5000000000000000  0.5000000000000000  0.0760717089948102 F F F
  0.5000000000000000  0.0000000000000000  0.0760717089948102 F F F
  0.1637987063274480  0.3325526054547296  0.3076657192097159 T T T
  0.3376328369702293  0.1667070314327432  0.3104196484674233 T T T
  0.0011479380838253  0.0010649059639007  0.2320120865073534 T T T
  0.3333333349999990  0.1666666650000010  0.1548840244483287 F F F
  0.1666666650000010  0.3333333349999990  0.0000000000000000 F F F
  0.3333333349999990  0.1666666650000010  0.0000000000000000 F F F
  0.0000000000000000  0.0000000000000000  0.0760717089948102 F F F
  0.1666666650000010  0.3333333349999990  0.1548840244483287 F F F
  0.1694161530924845  0.8381017251714837  0.3083604828195163 T T T
  0.3318719930766250  0.6651714079001820  0.3079652829494108 T T T
  0.6666666650000010  0.3333333349999990  0.1548840244483287 F F F
  0.9993849281189640  0.5013843411957808  0.2321109371260306 T T T
  0.1666666650000010  0.8333333349999990  0.0000000000000000 F F F
  0.3333333349999990  0.6666666650000010  0.0000000000000000 F F F
  0.0000000000000000  0.5000000000000000  0.0760717089948102 F F F
  0.1666666650000010  0.8333333349999990  0.1548840244483287 F F F
  0.6666666650000010  0.8333333349999990  0.1548840244483287 F F F
  0.6627792256583120  0.3344717266358259  0.3103935322427276 T T T
  0.8347080106361204  0.1701203182034234  0.3061679744178178 T T T
  0.5006179054373874  0.0005983758145902  0.2320525252419117 T T T
  0.8333333349999990  0.1666666650000010  0.1548840244483287 F F F
  0.6666666650000010  0.3333333349999990  0.0000000000000000 F F F
  0.8333333349999990  0.1666666650000010  0.0000000000000000 F F F
  0.3333333349999990  0.6666666650000010  0.1548840244483287 F F F
  0.0003071013366593  0.5500751750994084  0.3863984493501391 T T T
  0.4996130557903768  0.5456221256390492  0.3862251473573650 T T T
  0.5432824361254447  0.0001480219327945  0.3857320518042968 T T T
  0.9989052766992899  0.0447880418806292  0.3851630873725469 T T T
  0.4990071800844831  0.6388391167262526  0.4276144159300088 T T T
  0.5000537786896757  0.4564230285494162  0.4298387387031255 T T T
  0.6371046356931984  0.9999298177116103  0.4269244252529276 T T T
  0.4540508031237707  0.9990751973287360  0.4298009044801248 T T T
  0.0017897913217837  0.4608060944468235  0.4296853975744597 T T T
  0.0004130283164727  0.6435512879355656  0.4278287755583321 T T T
  0.0081135056065023  0.0136282994586665  0.5491905907839154 T T T
  0.9980267172687647  0.1362314942082676  0.4275754479451663 T T T
  0.9150576180066423  0.9927819634360731  0.5500193607334083 T T T
  0.0137996360747152  0.7893863530547165  0.5806531527968914 T T T
  0.9254753463512841  0.7169064936923206  0.5889471696809494 T T T
  0.0463591077932008  0.7594982435607065  0.5468301875247548 T T T
  0.0069523772719009  0.9308317577221672  0.5600192381841751 T T T
  0.7508402144388242  0.9599400066980195  0.5556481768449189 T T T
  0.7419268129448398  0.0354387237687135  0.5444192754092469 T T T
  0.6913676192905953  0.8887713240890420  0.5286853714897362 T T T
  0.1755082374554320  0.2283430106434992  0.6147552802993346 T T T
  0.2321759771597129  0.2925994137414847  0.5845239893266125 T T T
  0.1138585320393517  0.1491929589445320  0.5902803232297060 T T T
  0.9954198011381337  0.9524373545635214  0.4280313457668328 T T T
