Ni  P  H  O  H  O  H  O  H  O  H 
 1.0000000000000000
    11.7365814896693994    0.0000000000000000    0.0000000000000000
    -5.8682907448347201   10.1641777236399005    0.0000000000000000
     0.0000000000000000    0.0000000000000000   21.8470000000000013
 Ni  P   H   O   H   O   H   O   H   O   H  
  60  32   3   1   1   1   3   1   2   1   2
Selective dynamics
Cartesian
  2.3412774936450029  0.0000000000000000  1.7398272513047195   F   F   F
  3.7356599067270011  3.6945728017896156  6.5726005255059752   T   T   T
  8.2095682384797026  0.0000000000000000  1.7398272513047195   F   F   F
  3.7331377793849492  6.4659938614235370  6.5734871925778897   T   T   T
  4.7111902265905901  8.1613004083081684  5.0003910533573785   T   T   T
  1.7430057373652075  7.1323324627588525  5.0791656128115896   T   T   T
  7.2499960060871453  5.0820888618199511  0.1387334225070236   F   F   F
  3.7103654279997835  6.4265414359426867  0.1387334225070236   F   F   F
  0.7762200555824691  8.8197251495170974  0.1387334225070236   F   F   F
  1.7635066255952472  7.1096946486252861  1.7398272513047195   F   F   F
  4.6976519980121809  8.1365719368345726  1.7398272513047195   F   F   F
  1.3378502960350180  5.0789820723808026  6.5978335565144386   T   T   T
 -0.6170777642960887  5.0806185056236863  5.0069750682198260   T   T   T
 -1.1706387468225188  8.1365719368345726  1.7398272513047195   F   F   F
 -4.1047841192395333  7.1096946486252861  1.7398272513047195   F   F   F
 10.2145097619753447  0.0000000000000000  3.3837512821226370   F   F   F
  6.6293266086817253  1.3181527825651209  3.3837512821226370   F   F   F
  3.6951812362644096  3.7639360792547603  3.3837512821226370   F   F   F
  0.7465077356474284  8.8715933987171223  6.6963752676897697   T   T   T
  7.2803643895579837  5.0820888618199511  3.3837512821226370   F   F   F
  3.6951812362643630  6.4002416443850745  3.3837512821226370   F   F   F
  0.7610358638474249  8.8460249410747842  3.3837512821226370   F   F   F
 10.2485564003761986  0.0172510157000548  6.6726877608049584   T   T   T
  2.3659053096956137 10.1400933213099140  5.0455809397101987   T   T   T
 -5.0920706892522301  8.8197251495170974  0.1387334225070236   F   F   F
  7.6317973704295410  3.0544830750146197  1.7398272513047195   F   F   F
  3.7103654279997880  3.7376362876972173  0.1387334225070236   F   F   F
  6.6445108004172280  1.3444525741227356  0.1387334225070236   F   F   F
 10.1841413785045045  0.0000000000000000  0.1387334225070236   F   F   F
  4.7111122421889409  2.0007321886267295  4.9995748081419888   T   T   T
  7.5959896564742095  3.0454223062512717  5.0436961894594505   T   T   T
  6.6276146496112540  1.2788100187678639  6.6728791334738737   T   T   T
  4.6976519980121934  2.0276057868053314  1.7398272513047195   F   F   F
 -2.1579253168349162  6.4265414359426867  0.1387334225070236   F   F   F
  1.3817052612526963  5.0820888618199511  0.1387334225070236   F   F   F
  4.3462190171405606  0.0000000000000000  3.3837512821226370   F   F   F
  0.7610358638471083  1.3181527825651209  3.3837512821226370   F   F   F
 -2.1731095085702887  3.7639360792547603  3.3837512821226370   F   F   F
  5.2754228660623417  5.0820888618199511  1.7398272513047195   F   F   F
  0.7460259855236310  1.2916591037684118  6.6935065406859255   T   T   T
 -1.4877592982184180 10.1447046764004885  6.6727652381508067   T   T   T
  2.3656976154791725  0.0229497082263203  5.0446589595972391   T   T   T
  1.7635066255948419  3.0544830750146197  1.7398272513047195   F   F   F
 -1.1706387468225061  2.0276057868053314  1.7398272513047195   F   F   F
 -2.1579253168349117  3.7376362876972173  0.1387334225070236   F   F   F
  0.7762200555824448  1.3444525741227356  0.1387334225070236   F   F   F
  4.3158506336698048  0.0000000000000000  0.1387334225070236   F   F   F
 -1.1656535848607603  2.0569255942687423  5.0425877542092481   T   T   T
  9.5260256012824147  3.7831263714479988  6.6687974563066179   T   T   T
  7.5982512966059241  7.1195425700591493  5.0443515629393767   T   T   T
 -1.1616443898592625  8.1036545677268776  5.0443939599425720   T   T   T
 -2.2069602390358027  6.3797532429362995  6.6696567719629583   T   T   T
 -5.1072548809873570  8.8460249410747842  3.3837512821226370   F   F   F
 -2.1731095085703376  6.4002416443850745  3.3837512821226370   F   F   F
  1.4120736447233695  5.0820888618199511  3.3837512821226370   F   F   F
 -5.1088448018162271  8.8842720549563072  6.6718959384565091   T   T   T
 -0.5928678787721886  5.0820888618199511  1.7398272513047195   F   F   F
  5.3060166391236185  5.0825282067128370  5.0753961414951378   T   T   T
  7.3083888973349165  5.0830026657846314  6.6933572645043329   T   T   T
  1.7441022546061105  3.0298486915665288  5.0788436423782333   T   T   T
  5.8682907741762040  6.7761184654863156  0.0000000000000000   F   F   F
  2.9341453430758970  8.4701481199735351  0.0000000000000000   F   F   F
  5.8682907741762040  6.7761184654863156  3.3837512821226370   F   F   F
  2.9282520563040091  5.0810387106715513  5.1042713167522171   T   T   T
  5.9022225227488141  6.7979894215568004  6.7511659841473959   T   T   T
  2.9352482449321777  8.5102711976937293  6.7519118959711513   T   T   T
  2.9341453724173392  5.0820888618199511  1.6619386264096183   F   F   F
  5.8682907448346997  0.0000000000000000  1.6619386264096183   F   F   F
 -0.0454629206642282  3.3623978346656904  6.7377064674482607   T   T   T
  2.9348381887190920  1.6497931192592490  6.7498347417349214   T   T   T
  0.0072777077393606  0.0119374504843646  5.0565062588991836   T   T   T
  2.9341454017587822  1.6940296036663651  3.3837512821226370   F   F   F
 -0.0000000293414437  3.3880592581535875  0.0000000000000000   F   F   F
  2.9341454017587822  1.6940296036663651  0.0000000000000000   F   F   F
  0.0000000000000000  0.0000000000000000  1.6619386264096183   F   F   F
 -0.0000000293414437  3.3880592581535875  3.3837512821226370   F   F   F
 -2.9346808636539268  8.4697798856947379  6.7710160728206112   T   T   T
 -0.0391131414825194  6.7977333374376956  6.7488382528323454   T   T   T
  5.8682907154932558  3.3880592581535875  3.3837512821226370   F   F   F
  8.7857325226738912  5.0826068454951940  5.0553911925371127   T   T   T
 -2.9341454017588013  8.4701481199735351  0.0000000000000000   F   F   F
  0.0000000293416719  6.7761184654863156  0.0000000000000000   F   F   F
 -2.9341453724173583  5.0820888618199511  1.6619386264096183   F   F   F
 -2.9341454017588013  8.4701481199735351  3.3837512821226370   F   F   F
  2.9341453430758970  8.4701481199735351  3.3837512821226370   F   F   F
  5.9055646171058429  3.3658823861822600  6.7489231076238774   T   T   T
  8.8012870010756288  1.6924622314615703  6.7719621372266374   T   T   T
  0.0081425320485301 10.1503419229773826  5.0571670377676421   T   T   T
  8.8024361465934806  1.6940296036663651  3.3837512821226370   F   F   F
  5.8682907154932558  3.3880592581535875  0.0000000000000000   F   F   F
  8.8024361465934806  1.6940296036663651  0.0000000000000000   F   F   F
  0.0000000293416719  6.7761184654863156  3.3837512821226370   F   F   F
  8.8005240906022699  5.0820714616536700  7.6593461874995574   T   T   T
  0.0001484576356038 10.1631725972953149  7.6645582088685833   T   T   T
  5.8676000554974923 10.1634842336920084  7.6632049973064964   T   T   T
  3.1938539512728106  2.3688978500044096 10.6640107510096342   T   T   T
  2.2481141664686186  2.1336274906772883 10.8542716367082548   T   T   T
  4.7947241190884737  0.1955702717290876 11.1919713225384090   T   T   T
 -1.1491759751705766 10.0948279842878303 12.1267329369459702   T   T   T
 -1.3193565403208067  9.5680879932161247 10.6806350575244853   T   T   T
  3.7298385909083587  1.5546801775676009 10.8593096820495898   T   T   T
  0.5454489796457580  1.8219086340368917 11.2392658641602114   T   T   T
 -0.0362548751725236  2.5289911376210483 10.9067478187228630   T   T   T
  0.2149130091129387  1.0010775438655410 10.8322448823814028   T   T   T
  4.0416820406065517  4.5442576204400167 12.0553571229335681   T   T   T
  4.2497177769583576  5.2151118392791487 11.3829192838334539   T   T   T
  3.7273882852235891  3.7494049103114837 11.5377446936254326   T   T   T
