Ni   P    H    O    H    O    H    O    H    O    H 
   1.00000000000000     
  11.7365814896693994   0.0000000000000000   0.0000000000000000
  -5.8682907448347201  10.1641777236399005   0.0000000000000000
   0.0000000000000000   0.0000000000000000  21.8470000000000013
Ni   P    H    O    H    O    H    O    H    O    H 
60  36  7  1  2  1  3  1  2  1  2  
Selective dynamics
Direct
  0.1994854716175922  0.0000000000000000  0.0796368952856099 F F F
  0.4973070779897881  0.3693764032779328  0.3034304272799133 T T T
  0.6994854716175922  0.0000000000000000  0.0796368952856099 F F F
  0.6320540140077711  0.6304617069166625  0.3071565976132220 T T T
  0.8011790921215294  0.8009349829134038  0.2314055016589052 T T T
  0.4979901971620819  0.6977201964468662  0.2319568586193625 T T T
  0.8677263807581994  0.5000000000000000  0.0063502276059424 F F F
  0.6322736192418006  0.6322736192418006  0.0063502276059424 F F F
  0.5000000000000000  0.8677263807581923  0.0063502276059424 F F F
  0.5000000000000355  0.6994854716175922  0.0796368952856099 F F F
  0.8005145283824078  0.8005145283824078  0.0796368952856099 F F F
  0.3657933044479549  0.4959853382936430  0.3083249847332397 T T T
  0.2017415331506385  0.5036129335232502  0.2319672326024858 T T T
  0.3005145283824078  0.8005145283824078  0.0796368952856099 F F F
  0.0000000000000142  0.6994854716175922  0.0796368952856099 F F F
  0.8703138789575320  0.0000000000000000  0.1548840244483287 F F F
  0.6296861210424680  0.1296861210424680  0.1548840244483287 F F F
  0.5000000000000000  0.3703138789575249  0.1548840244483287 F F F
  0.4987011321770893  0.8662512348279137  0.3075616300929269 T T T
  0.8703138789575320  0.5000000000000000  0.1548840244483287 F F F
  0.6296861210424680  0.6296861210424680  0.1548840244483287 F F F
  0.5000000000000355  0.8703138789575320  0.1548840244483287 F F F
  0.8691088174623118  0.0007795634959038  0.3063510896199517 T T T
  0.7003225079564075  0.0029764426266183  0.2311239600670021 T T T
  0.0000000000000000  0.8677263807581923  0.0063502276059424 F F F
  0.8005145283824078  0.3005145283824078  0.0796368952856099 F F F
  0.5000000000000000  0.3677263807581994  0.0063502276059424 F F F
  0.6322736192418077  0.1322736192418006  0.0063502276059424 F F F
  0.8677263807581994  0.0000000000000000  0.0063502276059424 F F F
  0.5048093567776846  0.1994984537398778  0.2303819157670262 T T T
  0.7958897763550539  0.3030338590294335  0.2321862764367921 T T T
  0.6315245682274480  0.1330460169234300  0.3079186369337918 T T T
  0.5000000000000000  0.1994854716175922  0.0796368952856099 F F F
  0.1322736192418006  0.6322736192418006  0.0063502276059424 F F F
  0.3677263807582136  0.5000000000000000  0.0063502276059424 F F F
  0.3703138789575249  0.0000000000000000  0.1548840244483287 F F F
  0.1296861210424751  0.1296861210424680  0.1548840244483287 F F F
  0.0000000000000000  0.3703138789575249  0.1548840244483287 F F F
  0.6994854716175922  0.5000000000000000  0.0796368952856099 F F F
  0.1307366584983640  0.1296740495669724  0.3074657727185439 T T T
  0.3722679111053679  0.0012934856803994  0.3033570674797517 T T T
  0.1979778016591780  0.0028323959154264  0.2300421040498932 T T T
  0.3005145283824078  0.3005145283824078  0.0796368952856099 F F F
  0.0000000000000000  0.1994854716175922  0.0796368952856099 F F F
  0.0000000000000000  0.3677263807581994  0.0063502276059424 F F F
  0.1322736192418006  0.1322736192418006  0.0063502276059424 F F F
  0.3677263807581994  0.0000000000000000  0.0063502276059424 F F F
  0.0019351305972179  0.1965491153532071  0.2300084248804950 T T T
  0.0000245103297374  0.3708480972104127  0.3025325189268102 T T T
  0.0019903027480126  0.6999512878774752  0.2311056281520791 T T T
  0.3010231497466762  0.7990713163020757  0.2318934699962583 T T T
  0.1319853216787408  0.6316513226314413  0.3078801091542189 T T T
  0.0000000000000142  0.8703138789575320  0.1548840244483287 F F F
  0.1296861210424680  0.6296861210424680  0.1548840244483287 F F F
  0.3703138789575391  0.5000000000000000  0.1548840244483287 F F F
  0.0007507987587090  0.8685027668679481  0.3062292307535017 T T T
  0.1994854716176064  0.5000000000000000  0.0796368952856099 F F F
  0.7002594824069419  0.5006666065343026  0.2320690730165609 T T T
  0.8669057160309563  0.4981067924114129  0.3083856124671769 T T T
  0.2971479851468004  0.3010947679918061  0.2313631241953829 T T T
  0.8333333350000061  0.6666666650000010  0.0000000000000000 F F F
  0.6666666650000010  0.8333333349999990  0.0000000000000000 F F F
  0.8333333350000061  0.6666666650000010  0.1548840244483287 F F F
  0.4985085798839251  0.4993350247302146  0.2319487204973782 T T T
  0.8340070253128502  0.6669959424380281  0.3077234526972106 T T T
  0.6681438562683724  0.8339174893497727  0.3060425633040680 T T T
  0.5000000000000000  0.5000000000000000  0.0760717089948102 F F F
  0.5000000000000000  0.0000000000000000  0.0760717089948102 F F F
  0.1618183752634010  0.3306406360649490  0.3105416796486509 T T T
  0.3349599803966044  0.1660077266874822  0.3102933390301459 T T T
  0.0010576789344370  0.0006482657909999  0.2320726635184513 T T T
  0.3333333349999990  0.1666666650000010  0.1548840244483287 F F F
  0.1666666650000010  0.3333333349999990  0.0000000000000000 F F F
  0.3333333349999990  0.1666666650000010  0.0000000000000000 F F F
  0.0000000000000000  0.0000000000000000  0.0760717089948102 F F F
  0.1666666650000010  0.3333333349999990  0.1548840244483287 F F F
  0.1710730936476921  0.8379059701900999  0.3083871738867430 T T T
  0.3319779519657331  0.6647630523067463  0.3080206908432999 T T T
  0.6666666650000010  0.3333333349999990  0.1548840244483287 F F F
  0.9993961532098865  0.5010976366259925  0.2320251749129696 T T T
  0.1666666650000010  0.8333333349999990  0.0000000000000000 F F F
  0.3333333350000132  0.6666666650000010  0.0000000000000000 F F F
  0.0000000000000000  0.5000000000000000  0.0760717089948102 F F F
  0.1666666650000010  0.8333333349999990  0.1548840244483287 F F F
  0.6666666650000010  0.8333333349999990  0.1548840244483287 F F F
  0.6621727129761723  0.3336516479688925  0.3104775450760542 T T T
  0.8368741383777731  0.1704814733358262  0.3080754005886917 T T T
  0.5012908032626697  0.0007379865374162  0.2320254213014294 T T T
  0.8333333349999990  0.1666666650000010  0.1548840244483287 F F F
  0.6666666650000010  0.3333333349999990  0.0000000000000000 F F F
  0.8333333349999990  0.1666666650000010  0.0000000000000000 F F F
  0.3333333350000132  0.6666666650000010  0.1548840244483287 F F F
  0.0003082554472584  0.5484363989646681  0.3864302595102416 T T T
  0.5004090232821028  0.5451153996097204  0.3858443605387052 T T T
  0.5456515848937045  0.9998971194132693  0.3858332764358678 T T T
  0.9991737336096946  0.9986099113638076  0.3788056337085592 T T T
  0.5007429823948115  0.6390366420541937  0.4270563109422767 T T T
  0.5030603499788100  0.4569145833664123  0.4293639056653404 T T T
  0.6393736922316933  0.9995570815226600  0.4269600889045932 T T T
  0.4551523523165812  0.9978081510995906  0.4294069685710014 T T T
  0.0013515457848143  0.4593234107718800  0.4299229981477382 T T T
  0.0002771589062576  0.6423685020685994  0.4274662950576982 T T T
  0.0751079772334577  0.2779946350644877  0.4594858360088452 T T T
  0.0016611650314573  0.9989707823435694  0.5555055436383824 T T T
  0.0607697873038902  0.2321946251075531  0.4860985353604335 T T T
  0.9089265602991645  0.9789090414432238  0.5546091558194988 T T T
  0.0044467795444234  0.7725680237153227  0.5867466788437241 T T T
  0.9171053962134650  0.7027702804792639  0.5986144972046716 T T T
  0.0289720849816248  0.7379396918305545  0.5517691479015525 T T T
  0.9990038130649737  0.9154768892296943  0.5662858411476464 T T T
  0.7442993661255244  0.9477169224970581  0.5590314967458170 T T T
  0.7379751249247377  0.0247883678358534  0.5479922476224601 T T T
  0.6855921822903426  0.8783875779163992  0.5310952262443536 T T T
  0.1652115740050846  0.2157202321596756  0.6205257402355073 T T T
  0.2266514464993250  0.2774899029234490  0.5907607072656518 T T T
  0.1052195053559544  0.1355371127916669  0.5962178647463006 T T T
