Ni   P    H    O    H    O    H    O    H    O    H 
   1.00000000000000     
  11.7365814896693994   0.0000000000000000   0.0000000000000000
  -5.8682907448347201  10.1641777236399005   0.0000000000000000
   0.0000000000000000   0.0000000000000000  21.8470000000000013
Ni   P    H    O    H    O    H    O    H    O    H 
60  36  6  1  2  1  3  1  2  1  3  
Selective dynamics
Direct
  0.1994854716175922  0.0000000000000000  0.0796368952856099 F F F
  0.5001233333726205  0.3724773850170706  0.3036719089665851 T T T
  0.6994854716175922  0.0000000000000000  0.0796368952856099 F F F
  0.6327195549902029  0.6310493530950794  0.3074455953208357 T T T
  0.8023879266769853  0.8016692905944041  0.2319485016359550 T T T
  0.4984615551736127  0.6984855020385865  0.2318390493600759 T T T
  0.8677263807581994  0.5000000000000000  0.0063502276059424 F F F
  0.6322736192418006  0.6322736192418006  0.0063502276059424 F F F
  0.5000000000000000  0.8677263807581923  0.0063502276059424 F F F
  0.5000000000000568  0.6994854716175922  0.0796368952856099 F F F
  0.8005145283824078  0.8005145283824078  0.0796368952856099 F F F
  0.3676571758201135  0.4982916552728867  0.3082295574042675 T T T
  0.2010511447784751  0.5016904380136680  0.2319351252690538 T T T
  0.3005145283824078  0.8005145283824078  0.0796368952856099 F F F
  0.0000000000000213  0.6994854716175922  0.0796368952856099 F F F
  0.8703138789575320  0.0000000000000000  0.1548840244483287 F F F
  0.6296861210424680  0.1296861210424680  0.1548840244483287 F F F
  0.5000000000000000  0.3703138789575249  0.1548840244483287 F F F
  0.4977959732267792  0.8664024861220270  0.3077656584399691 T T T
  0.8703138789575320  0.5000000000000000  0.1548840244483287 F F F
  0.6296861210424680  0.6296861210424680  0.1548840244483287 F F F
  0.5000000000000568  0.8703138789575320  0.1548840244483287 F F F
  0.8647049312296389  0.0025400063295749  0.3070436256197482 T T T
  0.7004017151918802  0.0038880510796702  0.2317836452842670 T T T
  0.0000000000000000  0.8677263807581923  0.0063502276059424 F F F
  0.8005145283824078  0.3005145283824078  0.0796368952856099 F F F
  0.5000000000000000  0.3677263807581994  0.0063502276059424 F F F
  0.6322736192418077  0.1322736192418006  0.0063502276059424 F F F
  0.8677263807581994  0.0000000000000000  0.0063502276059424 F F F
  0.5027454678346785  0.1990192194000926  0.2302197870684850 T T T
  0.7952231130232619  0.3023877485822695  0.2323806675038753 T T T
  0.6289732346773249  0.1330763031792159  0.3082439446736842 T T T
  0.5000000000000000  0.1994854716175922  0.0796368952856099 F F F
  0.1322736192418006  0.6322736192418006  0.0063502276059424 F F F
  0.3677263807581994  0.5000000000000000  0.0063502276059424 F F F
  0.3703138789575249  0.0000000000000000  0.1548840244483287 F F F
  0.1296861210424751  0.1296861210424680  0.1548840244483287 F F F
  0.0000000000000000  0.3703138789575249  0.1548840244483287 F F F
  0.6994854716175922  0.5000000000000000  0.0796368952856099 F F F
  0.1338623626461768  0.1335086984881784  0.3106608637226032 T T T
  0.3714796177840043  0.0008266315142933  0.3028139408868071 T T T
  0.1979497117149407  0.0048468866573614  0.2312989906448166 T T T
  0.3005145283824078  0.3005145283824078  0.0796368952856099 F F F
  0.0000000000000000  0.1994854716175922  0.0796368952856099 F F F
  0.0000000000000000  0.3677263807581994  0.0063502276059424 F F F
  0.1322736192418006  0.1322736192418006  0.0063502276059424 F F F
  0.3677263807581994  0.0000000000000000  0.0063502276059424 F F F
  0.0034386703904801  0.1966959780642057  0.2310872489002094 T T T
  0.9989248138886779  0.3706550643125510  0.3022299990567419 T T T
  0.0022748463216402  0.7002531530299336  0.2319470349978303 T T T
  0.3003313647815204  0.7986567109307643  0.2320216006325140 T T T
  0.1316861160446265  0.6295231564064991  0.3081399562209910 T T T
  0.0000000000000213  0.8703138789575320  0.1548840244483287 F F F
  0.1296861210424680  0.6296861210424680  0.1548840244483287 F F F
  0.3703138789575249  0.5000000000000000  0.1548840244483287 F F F
  0.0022873891062432  0.8648915941725690  0.3074434376414601 T T T
  0.1994854716175922  0.5000000000000000  0.0796368952856099 F F F
  0.7012925699928090  0.5015748870943284  0.2319765971094512 T T T
  0.8669838479866243  0.4971744276390879  0.3086618161617167 T T T
  0.2978180482423198  0.3005187854718869  0.2327732257790558 T T T
  0.8333333350000061  0.6666666650000010  0.0000000000000000 F F F
  0.6666666650000010  0.8333333349999990  0.0000000000000000 F F F
  0.8333333350000061  0.6666666650000010  0.1548840244483287 F F F
  0.4992519607746360  0.5001466961312460  0.2317900239167798 T T T
  0.8331836591753969  0.6648884756011171  0.3068250016937384 T T T
  0.6658047408894916  0.8328159317305577  0.3046828923633029 T T T
  0.5000000000000000  0.5000000000000000  0.0760717089948102 F F F
  0.5000000000000000  0.0000000000000000  0.0760717089948102 F F F
  0.1639066768055315  0.3362813270862119  0.3081104922151852 T T T
  0.3406558377683666  0.1692578213088822  0.3084432601696534 T T T
  0.0015296195157077  0.0011102025540453  0.2332741324814762 T T T
  0.3333333349999990  0.1666666650000010  0.1548840244483287 F F F
  0.1666666650000010  0.3333333349999990  0.0000000000000000 F F F
  0.3333333349999990  0.1666666650000010  0.0000000000000000 F F F
  0.0000000000000000  0.0000000000000000  0.0760717089948102 F F F
  0.1666666650000010  0.3333333349999990  0.1548840244483287 F F F
  0.1723560246104228  0.8355297081568693  0.3079202197642275 T T T
  0.3322412215398884  0.6652715507152607  0.3082989161343619 T T T
  0.6666666650000010  0.3333333349999990  0.1548840244483287 F F F
  0.9989484186529722  0.5011085014335777  0.2318372136877969 T T T
  0.1666666650000010  0.8333333349999990  0.0000000000000000 F F F
  0.3333333349999990  0.6666666650000010  0.0000000000000000 F F F
  0.0000000000000071  0.5000000000000000  0.0760717089948102 F F F
  0.1666666650000010  0.8333333349999990  0.1548840244483287 F F F
  0.6666666650000010  0.8333333349999990  0.1548840244483287 F F F
  0.6624391038542825  0.3342942225681043  0.3110733779307466 T T T
  0.8340844958425038  0.1722033871720257  0.3077168082402935 T T T
  0.5009826858428781  0.0005164213686442  0.2318758379823151 T T T
  0.8333333349999990  0.1666666650000010  0.1548840244483287 F F F
  0.6666666650000010  0.3333333349999990  0.0000000000000000 F F F
  0.8333333349999990  0.1666666650000010  0.0000000000000000 F F F
  0.3333333349999990  0.6666666650000010  0.1548840244483287 F F F
  0.0000083244197029  0.5476189858819325  0.3867302104220443 T T T
  0.5005780192190272  0.5458156471253446  0.3861618362837476 T T T
  0.5445288781362692  0.9994349018198037  0.3860629263184308 T T T
  0.9836601965267491  0.9845467883843355  0.3787693944690531 T T T
  0.5038573327866303  0.6412844912744617  0.4274315107895887 T T T
  0.5005582276952580  0.4568865173620935  0.4301203422412883 T T T
  0.6384863696355865  0.0000190437132304  0.4274947067753274 T T T
  0.4538203350071797  0.9962230217376700  0.4298946330418545 T T T
  0.0005392365184846  0.4587487805175599  0.4305526561071034 T T T
  0.0005592063207231  0.6418776002309627  0.4278928198709053 T T T
  0.0034458730958846  0.0220794369507544  0.5616053236194318 T T T
  0.1154029090586377  0.1168319908050037  0.3856055321036251 T T T
  0.9120840295279748  0.0011615174927826  0.5710541903549071 T T T
  0.0243688826373969  0.8142048291338924  0.6076912371607932 T T T
  0.9370255656548352  0.7421054963596347  0.6178868578107455 T T T
  0.0589454026509912  0.7781713235156928  0.5775066223898193 T T T
  0.0085994462747578  0.9443707748380561  0.5759907196507115 T T T
  0.7527786217396297  0.9653923994961318  0.5934940518757514 T T T
  0.7390251132883918  0.0392066201944132  0.5851907708628445 T T T
  0.6864509405045709  0.8925935614714575  0.5693289991834973 T T T
  0.1630437901499349  0.2125367467131198  0.6430646866749754 T T T
  0.2289210848106080  0.2863100139279737  0.6193839641967998 T T T
  0.1064115650623236  0.1457563669698843  0.6119048216537450 T T T
  0.9725048500008668  0.9753840747816440  0.4438310182716450 T T T
