Ni   P    H    O    H    O    H    O    H    O    H 
   1.00000000000000     
  11.7365814896693994   0.0000000000000000   0.0000000000000000
  -5.8682907448347201  10.1641777236399005   0.0000000000000000
   0.0000000000000000   0.0000000000000000  21.8470000000000013
Ni   P    H    O    H    O    H    O    H    O    H 
60  32  5  1  1  1  3  1  2  1  3  
Selective dynamics
Direct
  0.1994854716175922  0.0000000000000000  0.0796368952856099 F F F
  0.5027624639979799  0.3746330443409842  0.3047861973077667 T T T
  0.6994854716175922  0.0000000000000000  0.0796368952856099 F F F
  0.6266564312663657  0.6267910262170807  0.3045329040752592 T T T
  0.7979830702013722  0.7988573728002787  0.2293964394606915 T T T
  0.5002034741552379  0.7022240490883142  0.2305353845690033 T T T
  0.8677263807581995  0.5000000000000001  0.0063502276059424 F F F
  0.6322736192418006  0.6322736192418007  0.0063502276059424 F F F
  0.5000000000000000  0.8677263807581925  0.0063502276059424 F F F
  0.5000000000000568  0.6994854716175924  0.0796368952856099 F F F
  0.8005145283824079  0.8005145283824081  0.0796368952856099 F F F
  0.3745182270122251  0.5026069079099378  0.3047969426045973 T T T
  0.2016486332268740  0.5027694574175143  0.2301870471849884 T T T
  0.3005145283824079  0.8005145283824081  0.0796368952856099 F F F
  0.0000000000000355  0.6994854716175924  0.0796368952856099 F F F
  0.8703138789575320  0.0000000000000000  0.1548840244483287 F F F
  0.6296861210424680  0.1296861210424680  0.1548840244483287 F F F
  0.5000000000000000  0.3703138789575250  0.1548840244483287 F F F
  0.5001426323261315  0.8728923738190968  0.3055948581046721 T T T
  0.8703138789575320  0.5000000000000001  0.1548840244483287 F F F
  0.6296861210424680  0.6296861210424682  0.1548840244483287 F F F
  0.5000000000000570  0.8703138789575322  0.1548840244483287 F F F
  0.8690505823929330  0.9957822260548437  0.3055664118858765 T T T
  0.7010883824644421  0.9995562902472919  0.2306513236528530 T T T
  0.0000000000000000  0.8677263807581925  0.0063502276059424 F F F
  0.8005145283824078  0.3005145283824078  0.0796368952856099 F F F
  0.5000000000000000  0.3677263807581995  0.0063502276059424 F F F
  0.6322736192418077  0.1322736192418006  0.0063502276059424 F F F
  0.8677263807581994  0.0000000000000000  0.0063502276059424 F F F
  0.5026827924214650  0.2015224836464483  0.2302641054656694 T T T
  0.7985632423538053  0.2978704116936658  0.2310466722980779 T T T
  0.6270890800811572  0.1271326053899023  0.3055122955015271 T T T
  0.5000000000000000  0.1994854716175923  0.0796368952856099 F F F
  0.1322736192418006  0.6322736192418007  0.0063502276059424 F F F
  0.3677263807582278  0.5000000000000001  0.0063502276059424 F F F
  0.3703138789575248  0.0000000000000000  0.1548840244483287 F F F
  0.1296861210424751  0.1296861210424680  0.1548840244483287 F F F
  0.0000000000000000  0.3703138789575250  0.1548840244483287 F F F
  0.6994854716175922  0.5000000000000001  0.0796368952856099 F F F
  0.1377553660752496  0.1382190319240494  0.3095838158612894 T T T
  0.3720486364373671  0.9987271154623508  0.3051746023480318 T T T
  0.1993022230486195  0.0008781244098716  0.2329432515537213 T T T
  0.3005145283824078  0.3005145283824078  0.0796368952856099 F F F
  0.0000000000000000  0.1994854716175923  0.0796368952856099 F F F
  0.0000000000000142  0.3677263807581995  0.0063502276059424 F F F
  0.1322736192418006  0.1322736192418006  0.0063502276059424 F F F
  0.3677263807581994  0.0000000000000000  0.0063502276059424 F F F
  0.0002328873811597  0.1989575262374118  0.2328551494827663 T T T
  0.9985524110076875  0.3720565775435776  0.3049903906900956 T T T
  0.9994509043676809  0.7004993341304580  0.2302737138249804 T T T
  0.2981807230120938  0.7987438037872154  0.2310772109542689 T T T
  0.1272717052140911  0.6270071752823057  0.3053157710095198 T T T
  0.0000000000000356  0.8703138789575322  0.1548840244483287 F F F
  0.1296861210424680  0.6296861210424682  0.1548840244483287 F F F
  0.3703138789575534  0.5000000000000001  0.1548840244483287 F F F
  0.9952125458195978  0.8672748546776985  0.3046520638858738 T T T
  0.1994854716176136  0.5000000000000001  0.0796368952856099 F F F
  0.7021207660400336  0.5001059724231438  0.2305176213301281 T T T
  0.8728017061418709  0.4999117141112595  0.3054878393239737 T T T
  0.2988554524705099  0.2987155790636339  0.2308518218431851 T T T
  0.8333333350000061  0.6666666650000012  0.0000000000000000 F F F
  0.6666666650000010  0.8333333349999990  0.0000000000000000 F F F
  0.8333333350000061  0.6666666650000012  0.1548840244483287 F F F
  0.5010589933337329  0.5010814192645645  0.2307249482056796 T T T
  0.8293645717352981  0.6629932836922841  0.3099684273746110 T T T
  0.6638543084281365  0.8300682198710280  0.3100289294272207 T T T
  0.5000000000000000  0.5000000000000001  0.0760717089948102 F F F
  0.5000000000000000  0.0000000000000000  0.0760717089948102 F F F
  0.1696722251166722  0.3434011721846144  0.3054481473125489 T T T
  0.3432015636695041  0.1699187192487480  0.3059780785298963 T T T
  0.0029976309328673  0.0031000728802698  0.2335352138286877 T T T
  0.3333333349999990  0.1666666650000011  0.1548840244483287 F F F
  0.1666666650000010  0.3333333349999991  0.0000000000000000 F F F
  0.3333333349999990  0.1666666650000011  0.0000000000000000 F F F
  0.0000000000000000  0.0000000000000000  0.0760717089948102 F F F
  0.1666666650000010  0.3333333349999991  0.1548840244483287 F F F
  0.1651467209016117  0.8321703249180995  0.3090399776138628 T T T
  0.3340267017400923  0.6678981224863273  0.3104167597058221 T T T
  0.6666666650000010  0.3333333349999991  0.1548840244483287 F F F
  0.9995685794765969  0.5004146592698703  0.2312677468999380 T T T
  0.1666666650000011  0.8333333349999990  0.0000000000000000 F F F
  0.3333333350000274  0.6666666650000012  0.0000000000000000 F F F
  0.0000000000000214  0.5000000000000001  0.0760717089948102 F F F
  0.1666666650000011  0.8333333349999990  0.1548840244483287 F F F
  0.6666666650000010  0.8333333349999990  0.1548840244483287 F F F
  0.6678878563878206  0.3338225854742203  0.3103393405189008 T T T
  0.8323015972220387  0.1650311649572273  0.3095387875094352 T T T
  0.5005833558868897  0.9996474573850245  0.2313819731720879 T T T
  0.8333333349999988  0.1666666650000011  0.1548840244483287 F F F
  0.6666666650000010  0.3333333349999991  0.0000000000000000 F F F
  0.8333333349999988  0.1666666650000011  0.0000000000000000 F F F
  0.3333333350000274  0.6666666650000012  0.1548840244483287 F F F
  0.0002614618087490  0.5002967239817525  0.3500997313044532 T T T
  0.5003200529006856  0.0003407691228254  0.3503004517882257 T T T
  0.9142812206103155  0.9129930135630681  0.3508249689290218 T T T
  0.5020531403360478  0.5021279688274383  0.3496413163507520 T T T
  0.1593511836602696  0.1377796753256040  0.3855770897308276 T T T
  0.2520041939364949  0.1705115985418876  0.4917721189278751 T T T
  0.3348212721476232  0.1707693707823923  0.5018892411098740 T T T
  0.2910924776701821  0.4081566095256147  0.5349192982524857 T T T
  0.3835851404219807  0.4756615321247949  0.5323049144837658 T T T
  0.2439441213680741  0.4422123808520292  0.5115178179431865 T T T
  0.2666347525182866  0.2572938610014352  0.5061780775848305 T T T
  0.4784776773000037  0.1701601577258768  0.5247905503145714 T T T
  0.4759297009395005  0.0880982424273998  0.5146131340442263 T T T
  0.5569221939087223  0.2390727127218068  0.5047651131539006 T T T
  0.0622343820274124  0.9819774467898795  0.5653602573796652 T T T
  0.9993651008302502  0.9135825741335267  0.5383165443797207 T T T
  0.1298548198682254  0.0493809407923834  0.5376023434392101 T T T
  0.0786307572880530  0.1049126887254204  0.3803046004232217 T T T
