Ni   P    H    O    H    O    H    O    H    O    H 
   1.00000000000000     
  11.7365814896693994   0.0000000000000000   0.0000000000000000
  -5.8682907448347201  10.1641777236399005   0.0000000000000000
   0.0000000000000000   0.0000000000000000  21.8470000000000013
Ni   P    H    O    H    O    H    O    H    O    H 
60  32  4  1  2  1  3  1  2  1  2  
Selective dynamics
Direct
  0.1994854716175922  0.0000000000000000  0.0796368952856099 F F F
  0.5030832826472443  0.3774514573117154  0.3089259245662875 T T T
  0.6994854716175922  0.0000000000000000  0.0796368952856099 F F F
  0.6292976142566449  0.6303083809006012  0.3046937289995901 T T T
  0.7990953899274860  0.7990462569408668  0.2305096507922950 T T T
  0.5009433378523835  0.7024182980160001  0.2305356717882329 T T T
  0.8677263807581995  0.5000000000000001  0.0063502276059424 F F F
  0.6322736192418006  0.6322736192418007  0.0063502276059424 F F F
  0.5000000000000001  0.8677263807581929  0.0063502276059424 F F F
  0.5000000000000213  0.6994854716175927  0.0796368952856099 F F F
  0.8005145283824079  0.8005145283824081  0.0796368952856099 F F F
  0.3727273528795355  0.5021697399260469  0.3044832258306716 T T T
  0.2015323198652552  0.5002052308116954  0.2304788295213683 T T T
  0.3005145283824079  0.8005145283824081  0.0796368952856099 F F F
  0.0000000000000143  0.6994854716175927  0.0796368952856099 F F F
  0.8703138789575320  0.0000000000000000  0.1548840244483287 F F F
  0.6296861210424680  0.1296861210424680  0.1548840244483287 F F F
  0.5000000000000000  0.3703138789575251  0.1548840244483287 F F F
  0.5000772473058704  0.8732170818040141  0.3051516007911698 T T T
  0.8703138789575320  0.5000000000000001  0.1548840244483287 F F F
  0.6296861210424680  0.6296861210424683  0.1548840244483287 F F F
  0.5000000000000214  0.8703138789575325  0.1548840244483287 F F F
  0.8739535483654837  0.0014303633118975  0.3052651561875321 T T T
  0.7016974853565402  0.0009184857356467  0.2310008895389187 T T T
  0.0000000000000001  0.8677263807581929  0.0063502276059424 F F F
  0.8005145283824078  0.3005145283824078  0.0796368952856099 F F F
  0.5000000000000000  0.3677263807581996  0.0063502276059424 F F F
  0.6322736192418077  0.1322736192418006  0.0063502276059424 F F F
  0.8677263807581994  0.0000000000000000  0.0063502276059424 F F F
  0.5005870371585688  0.2041296445020120  0.2323667561699494 T T T
  0.7988085650140246  0.2989916814779413  0.2305908676936176 T T T
  0.6272308477384264  0.1279007359634678  0.3054341354838239 T T T
  0.5000000000000000  0.1994854716175923  0.0796368952856099 F F F
  0.1322736192418006  0.6322736192418007  0.0063502276059424 F F F
  0.3677263807582066  0.5000000000000001  0.0063502276059424 F F F
  0.3703138789575248  0.0000000000000000  0.1548840244483287 F F F
  0.1296861210424751  0.1296861210424680  0.1548840244483287 F F F
  0.0000000000000001  0.3703138789575251  0.1548840244483287 F F F
  0.6994854716175922  0.5000000000000001  0.0796368952856099 F F F
  0.1292110657263639  0.1279291984098000  0.3045244708659000 T T T
  0.3715904871050689  0.0002688348284637  0.3042644047637919 T T T
  0.1957008560338894  0.9899796655737771  0.2291793099467045 T T T
  0.3005145283824078  0.3005145283824078  0.0796368952856099 F F F
  0.0000000000000000  0.1994854716175923  0.0796368952856099 F F F
  0.0000000000000000  0.3677263807581996  0.0063502276059424 F F F
  0.1322736192418006  0.1322736192418006  0.0063502276059424 F F F
  0.3677263807581994  0.0000000000000000  0.0063502276059424 F F F
  0.0011685105393645  0.2019236191647947  0.2306629349189060 T T T
  0.0004001133479033  0.3720191628662559  0.3049360749915868 T T T
  0.9993093991947885  0.7012492804117765  0.2308141581302098 T T T
  0.2986991096899914  0.7991120774040670  0.2309817343906694 T T T
  0.1270618094999346  0.6269705858695156  0.3053643049907614 T T T
  0.0000000000000144  0.8703138789575325  0.1548840244483287 F F F
  0.1296861210424680  0.6296861210424683  0.1548840244483287 F F F
  0.3703138789575250  0.5000000000000001  0.1548840244483287 F F F
  0.9999313910716222  0.8725696664525221  0.3055747450286342 T T T
  0.1994854716175923  0.5000000000000001  0.0796368952856099 F F F
  0.6998874043961706  0.4981480745356852  0.2314513088816967 T T T
  0.8735045829258886  0.5005162742033084  0.3052519347579898 T T T
  0.3018774635171214  0.2984759258211903  0.2318334710414856 T T T
  0.8333333350000061  0.6666666650000012  0.0000000000000000 F F F
  0.6666666650000010  0.8333333349999990  0.0000000000000000 F F F
  0.8333333350000061  0.6666666650000012  0.1548840244483287 F F F
  0.5006932338280891  0.5001238222677747  0.2316871375836027 T T T
  0.8340894224449314  0.6669517054370598  0.3097935866250835 T T T
  0.6679896161125045  0.8359366785323386  0.3083341894567625 T T T
  0.5000000000000000  0.5000000000000001  0.0760717089948102 F F F
  0.5000000000000000  0.0000000000000000  0.0760717089948102 F F F
  0.1679599783310899  0.3335679846469018  0.3087442572173426 T T T
  0.3346210620161855  0.1671652168976189  0.3107726522375728 T T T
  0.0000867411529088  0.9995730638914184  0.2313431156664377 T T T
  0.3333333349999990  0.1666666650000011  0.1548840244483287 F F F
  0.1666666650000010  0.3333333349999991  0.0000000000000000 F F F
  0.3333333349999990  0.1666666650000011  0.0000000000000000 F F F
  0.0000000000000000  0.0000000000000000  0.0760717089948102 F F F
  0.1666666650000010  0.3333333349999991  0.1548840244483287 F F F
  0.1661648867356992  0.8323499166734886  0.3091978216380950 T T T
  0.3329658731326492  0.6679395646043007  0.3089506752494312 T T T
  0.6666666650000010  0.3333333349999991  0.1548840244483287 F F F
  0.0002254197541465  0.4999913299212707  0.2313496668619699 T T T
  0.1666666650000011  0.8333333349999990  0.0000000000000000 F F F
  0.3333333350000061  0.6666666650000012  0.0000000000000000 F F F
  0.0000000000000002  0.5000000000000001  0.0760717089948102 F F F
  0.1666666650000011  0.8333333349999990  0.1548840244483287 F F F
  0.6666666650000010  0.8333333349999990  0.1548840244483287 F F F
  0.6690906732467984  0.3340929777242859  0.3085262829788101 T T T
  0.8329726069046841  0.1668309316987894  0.3097730096714778 T T T
  0.5004011760021821  0.0004495364823846  0.2312485747057299 T T T
  0.8333333349999988  0.1666666650000011  0.1548840244483287 F F F
  0.6666666650000010  0.3333333349999991  0.0000000000000000 F F F
  0.8333333349999988  0.1666666650000011  0.0000000000000000 F F F
  0.3333333350000061  0.6666666650000012  0.1548840244483287 F F F
  0.0002080040599869  0.4988791647122662  0.3500223762252655 T T T
  0.4991336951498982  0.0024325612302913  0.3495343213139852 T T T
  0.0024389684644368  0.0003785385463616  0.3498397893995990 T T T
  0.5030585985305239  0.5063636262443677  0.3499249093859382 T T T
  0.3974323771348280  0.2465889831153633  0.4686172756751589 T T T
  0.4141903513509334  0.2672183026818191  0.3636466477778326 T T T
  0.3051828694596648  0.2257132689073326  0.4757531128809070 T T T
  0.4042893908057071  0.0236909561799542  0.5008458249327410 T T T
  0.3381456763513703  0.9757996426236836  0.5321575035589825 T T T
  0.3886645341417277  0.9587796687127658  0.4693624512975875 T T T
  0.3982774945174818  0.1643356405934652  0.4787604398544969 T T T
  0.1452277626502421  0.1907377836235683  0.4928396471092967 T T T
  0.1215393750451467  0.2536087006015714  0.4768875485104680 T T T
  0.0766360673695430  0.1047299847648473  0.4788176198093389 T T T
  0.5608001581558258  0.4470435043214117  0.5456234402590001 T T T
  0.6220002658067145  0.5189673022061114  0.5195949166814234 T T T
  0.5029241663492072  0.3753506517454477  0.5168381143185629 T T T
