Ni   P    H    O    H    O    H    O    H    O    H 
   1.00000000000000     
  11.7365814896693994   0.0000000000000000   0.0000000000000000
  -5.8682907448347201  10.1641777236399005   0.0000000000000000
   0.0000000000000000   0.0000000000000000  21.8470000000000013
Ni   P    H    O    H    O    H    O    H    O    H 
60  32  5  1  1  1  3  1  2  1  2  
Selective dynamics
Direct
  0.1994854716175922  0.0000000000000000  0.0796368952856099 F F F
  0.5000320657386348  0.3728174674098289  0.3057589473749145 T T T
  0.6994854716175924  0.0000000000000000  0.0796368952856099 F F F
  0.6277991280303568  0.6278385967350414  0.3051043187464753 T T T
  0.7988037514382431  0.7986592645415004  0.2307394645329590 T T T
  0.5000882250873636  0.7013823164904787  0.2308007619168949 T T T
  0.8677263807581996  0.5000000000000001  0.0063502276059424 F F F
  0.6322736192418008  0.6322736192418008  0.0063502276059424 F F F
  0.5000000000000002  0.8677263807581926  0.0063502276059424 F F F
  0.5000000000000639  0.6994854716175924  0.0796368952856099 F F F
  0.8005145283824080  0.8005145283824081  0.0796368952856099 F F F
  0.3724169043676694  0.5002319019876468  0.3050868573433330 T T T
  0.2013480537878939  0.4999900205960827  0.2307438546352543 T T T
  0.3005145283824079  0.8005145283824081  0.0796368952856099 F F F
  0.0000000000000426  0.6994854716175924  0.0796368952856099 F F F
  0.8703138789575322  0.0000000000000000  0.1548840244483288 F F F
  0.6296861210424680  0.1296861210424680  0.1548840244483288 F F F
  0.5000000000000000  0.3703138789575250  0.1548840244483288 F F F
  0.4998879728862767  0.8723945094741555  0.3051421230859087 T T T
  0.8703138789575321  0.5000000000000001  0.1548840244483288 F F F
  0.6296861210424681  0.6296861210424681  0.1548840244483288 F F F
  0.5000000000000642  0.8703138789575323  0.1548840244483288 F F F
  0.8725283478428847  0.0001134633062441  0.3051446566196954 T T T
  0.7013089770049001  0.0000198287406043  0.2308029673744574 T T T
  0.0000000000000001  0.8677263807581926  0.0063502276059424 F F F
  0.8005145283824079  0.3005145283824078  0.0796368952856099 F F F
  0.5000000000000001  0.3677263807581995  0.0063502276059424 F F F
  0.6322736192418077  0.1322736192418006  0.0063502276059424 F F F
  0.8677263807581994  0.0000000000000000  0.0063502276059424 F F F
  0.5000465533229884  0.2016321973398434  0.2310059378631753 T T T
  0.7986598056970979  0.2985367206213578  0.2307118031627361 T T T
  0.6274952455297725  0.1274730963975115  0.3051449220547668 T T T
  0.5000000000000002  0.1994854716175923  0.0796368952856099 F F F
  0.1322736192418007  0.6322736192418008  0.0063502276059424 F F F
  0.3677263807582279  0.5000000000000001  0.0063502276059424 F F F
  0.3703138789575249  0.0000000000000000  0.1548840244483288 F F F
  0.1296861210424751  0.1296861210424680  0.1548840244483288 F F F
 -0.0000000000000000  0.3703138789575250  0.1548840244483288 F F F
  0.6994854716175923  0.5000000000000001  0.0796368952856099 F F F
  0.1275277407147109  0.1274590411891321  0.3052441219843122 T T T
  0.3722452594369230  0.9997929270022067  0.3051045319314766 T T T
  0.2009420663906596  0.9991122747554076  0.2308173713770846 T T T
  0.3005145283824078  0.3005145283824078  0.0796368952856099 F F F
  0.0000000000000000  0.1994854716175923  0.0796368952856099 F F F
  0.0000000000000143  0.3677263807581995  0.0063502276059424 F F F
  0.1322736192418006  0.1322736192418006  0.0063502276059424 F F F
  0.3677263807581994  0.0000000000000000  0.0063502276059424 F F F
  0.0000960114461108  0.2013769370454943  0.2307668457777151 T T T
  0.9999618128968809  0.3723040030482130  0.3050889408781329 T T T
  0.9998339241747001  0.7013475247764466  0.2307914985939671 T T T
  0.2985935263353526  0.7985702535349276  0.2307808270897602 T T T
  0.1273657123478946  0.6274258473331074  0.3051237247571268 T T T
  0.0000000000000427  0.8703138789575323  0.1548840244483288 F F F
  0.1296861210424681  0.6296861210424681  0.1548840244483288 F F F
  0.3703138789575534  0.5000000000000001  0.1548840244483288 F F F
  0.9999225990751052  0.8724022776334440  0.3053149753608639 T T T
  0.1994854716176065  0.5000000000000001  0.0796368952856099 F F F
  0.7009820319034363  0.4995831160388938  0.2308765386396837 T T T
  0.8722619604093872  0.4998093383992335  0.3050763526427037 T T T
  0.2988013255518727  0.2985662548744963  0.2310027517710626 T T T
  0.8333333350000063  0.6666666650000010  0.0000000000000000 F F F
  0.6666666650000013  0.8333333349999990  0.0000000000000000 F F F
  0.8333333350000063  0.6666666650000010  0.1548840244483288 F F F
  0.5000130215332741  0.4999085536116665  0.2313544577676233 T T T
  0.8334159511618840  0.6665903383316858  0.3094043797558251 T T T
  0.6667510349882353  0.8335172686523596  0.3089822232227017 T T T
  0.5000000000000001  0.5000000000000001  0.0760717089948102 F F F
  0.5000000000000000  0.0000000000000000  0.0760717089948102 F F F
  0.1667391763607041  0.3332810074160480  0.3093294407536189 T T T
  0.3335929201878517  0.1669190556503240  0.3100559909315074 T T T
  0.0001184452077015  0.9999880812743236  0.2313388509495137 T T T
  0.3333333349999991  0.1666666650000011  0.1548840244483288 F F F
  0.1666666650000011  0.3333333349999990  0.0000000000000000 F F F
  0.3333333349999991  0.1666666650000011  0.0000000000000000 F F F
  0.0000000000000000  0.0000000000000000  0.0760717089948102 F F F
  0.1666666650000011  0.3333333349999990  0.1548840244483288 F F F
  0.1665039559737191  0.8331479648303847  0.3093646125668149 T T T
  0.3331096937209991  0.6666730075169923  0.3093147144265696 T T T
  0.6666666650000013  0.3333333349999990  0.1548840244483288 F F F
  0.9999438301087590  0.4999079899495164  0.2312745286955874 T T T
  0.1666666650000011  0.8333333349999990  0.0000000000000000 F F F
  0.3333333350000275  0.6666666650000010  0.0000000000000000 F F F
  0.0000000000000143  0.5000000000000001  0.0760717089948102 F F F
  0.1666666650000011  0.8333333349999990  0.1548840244483288 F F F
  0.6666666650000013  0.8333333349999990  0.1548840244483288 F F F
  0.6664346022991827  0.3331349077581379  0.3092398033684246 T T T
  0.8332444717605862  0.1666479819491123  0.3093977348550762 T T T
  0.4998896252435240  0.9999903420895085  0.2312934574060575 T T T
  0.8333333349999990  0.1666666650000011  0.1548840244483288 F F F
  0.6666666650000013  0.3333333349999990  0.0000000000000000 F F F
  0.8333333349999990  0.1666666650000011  0.0000000000000000 F F F
  0.3333333350000275  0.6666666650000010  0.1548840244483288 F F F
  0.9997962041711783  0.4997184492748641  0.3500008172437390 T T T
  0.4998132298953239  0.0003913046740213  0.3500103068457843 T T T
  0.0002115989954996  0.0000199139455737  0.3501626639529183 T T T
  0.5001630040438345  0.4996155915797225  0.3501161872254507 T T T
  0.4053177395810745  0.2537797218759778  0.4156101032084079 T T T
  0.4143081213680965  0.2595001640429558  0.4609639064694901 T T T
  0.5011630685460389  0.2526891421824008  0.4740773233526908 T T T
  0.4355943814970937  0.4665326663314934  0.5001533624529815 T T T
  0.5246449918231340  0.5409367851926266  0.4950492806311188 T T T
  0.3760762359586287  0.4904191180009671  0.4800908326036603 T T T
  0.4245659044061642  0.3533162398980983  0.4764593797929936 T T T
  0.6058353234274043  0.2428623541833993  0.4949624303512419 T T T
  0.5991640353584380  0.1591383577154894  0.4837919391509062 T T T
  0.6894662502419291  0.3125690978126100  0.4788075666686210 T T T
  0.1942329454118086  0.0447180678254854  0.5316158966828504 T T T
  0.1318529177652659  0.9777795817187359  0.5037729073991613 T T T
  0.2612737719454253  0.1113055497914106  0.5047849132347223 T T T
