Ni   P    H    O    H    O    H    O    H    O    H 
   1.00000000000000     
  11.7365814896693994   0.0000000000000000   0.0000000000000000
  -5.8682907448347201  10.1641777236399005   0.0000000000000000
   0.0000000000000000   0.0000000000000000  21.8470000000000013
Ni   P    H    O    H    O    H    O    H    O    H 
60  32  5  1  1  1  3  1  2  1  2  
Selective dynamics
Direct
  0.1994854716175922  0.0000000000000000  0.0796368952856099 F F F
  0.5003536583492073  0.3724764766118123  0.3048954702143064 T T T
  0.6994854716175924  0.0000000000000000  0.0796368952856099 F F F
  0.6277366703363154  0.6276124870523758  0.3052333516073830 T T T
  0.7987751091887170  0.7987607079418932  0.2308917232370220 T T T
  0.4999220598822040  0.7012548272167587  0.2308612873946469 T T T
  0.8677263807582011  0.5000000000000001  0.0063502276059424 F F F
  0.6322736192418008  0.6322736192418008  0.0063502276059424 F F F
  0.5000000000000006  0.8677263807581931  0.0063502276059424 F F F
  0.5000000000000553  0.6994854716175924  0.0796368952856099 F F F
  0.8005145283824080  0.8005145283824081  0.0796368952856099 F F F
  0.3725522569715414  0.5000587113588379  0.3053532691117874 T T T
  0.2014992496854778  0.5001456110946078  0.2308056252225827 T T T
  0.3005145283824079  0.8005145283824081  0.0796368952856099 F F F
  0.0000000000000322  0.6994854716175924  0.0796368952856099 F F F
  0.8703138789575322  0.0000000000000000  0.1548840244483289 F F F
  0.6296861210424680  0.1296861210424680  0.1548840244483289 F F F
  0.5000000000000001  0.3703138789575251  0.1548840244483289 F F F
  0.4998377317756498  0.8723510728690052  0.3052305278878700 T T T
  0.8703138789575335  0.5000000000000001  0.1548840244483289 F F F
  0.6296861210424681  0.6296861210424681  0.1548840244483289 F F F
  0.5000000000000554  0.8703138789575328  0.1548840244483289 F F F
  0.8721471600259673  0.9998860701840625  0.3053936701651447 T T T
  0.7013482639342077  0.9999614993723637  0.2308000546186014 T T T
  0.0000000000000002  0.8677263807581931  0.0063502276059424 F F F
  0.8005145283824079  0.3005145283824078  0.0796368952856099 F F F
  0.5000000000000009  0.3677263807581996  0.0063502276059424 F F F
  0.6322736192418077  0.1322736192418006  0.0063502276059424 F F F
  0.8677263807581994  0.0000000000000000  0.0063502276059424 F F F
  0.5009873419562885  0.2017301998881937  0.2306689832099153 T T T
  0.7988759320095424  0.2985010723619947  0.2307739102957991 T T T
  0.6276759571462953  0.1275479824374406  0.3052464860995761 T T T
  0.5000000000000002  0.1994854716175923  0.0796368952856099 F F F
  0.1322736192418007  0.6322736192418008  0.0063502276059424 F F F
  0.3677263807582307  0.5000000000000001  0.0063502276059424 F F F
  0.3703138789575249  0.0000000000000000  0.1548840244483289 F F F
  0.1296861210424751  0.1296861210424680  0.1548840244483289 F F F
  0.0000000000000000  0.3703138789575251  0.1548840244483289 F F F
  0.6994854716175931  0.5000000000000001  0.0796368952856099 F F F
  0.1271335465295586  0.1273267474211484  0.3059401730362101 T T T
  0.3723580339508957  0.9999949794904790  0.3050588590658058 T T T
  0.2010413408270581  0.9999755210235660  0.2309735323056879 T T T
  0.3005145283824083  0.3005145283824078  0.0796368952856099 F F F
  0.0000000000000001  0.1994854716175923  0.0796368952856099 F F F
  0.0000000000000161  0.3677263807581996  0.0063502276059424 F F F
  0.1322736192418006  0.1322736192418006  0.0063502276059424 F F F
  0.3677263807581994  0.0000000000000000  0.0063502276059424 F F F
  0.0003402273734189  0.2012770784135538  0.2309613954213111 T T T
  0.0001451497698140  0.3723559978650874  0.3052003583048410 T T T
  0.0002353673678680  0.7015264200503563  0.2308548593262002 T T T
  0.2986072673126141  0.7985921307602009  0.2307672134546665 T T T
  0.1277271395801796  0.6276192924574799  0.3052466271921646 T T T
  0.0000000000000323  0.8703138789575328  0.1548840244483289 F F F
  0.1296861210424681  0.6296861210424681  0.1548840244483289 F F F
  0.3703138789575562  0.5000000000000001  0.1548840244483289 F F F
  0.9998514648919882  0.8722451254887623  0.3054427664625897 T T T
  0.1994854716176089  0.5000000000000001  0.0796368952856099 F F F
  0.7015775555432359  0.5003815383734200  0.2307023940701418 T T T
  0.8725661449732522  0.4999792315176138  0.3051133415444949 T T T
  0.2982220867480245  0.2987345800464936  0.2309555425560181 T T T
  0.8333333350000075  0.6666666650000010  0.0000000000000000 F F F
  0.6666666650000019  0.8333333349999990  0.0000000000000000 F F F
  0.8333333350000075  0.6666666650000010  0.1548840244483289 F F F
  0.4999917597952849  0.5001900457018603  0.2313487120274408 T T T
  0.8334777630856971  0.6665143292922936  0.3096523114958610 T T T
  0.6664319936311174  0.8332463186068038  0.3093888514464286 T T T
  0.5000000000000009  0.5000000000000001  0.0760717089948102 F F F
  0.5000000000000000  0.0000000000000000  0.0760717089948102 F F F
  0.1668063861741365  0.3333165223015049  0.3097842292329163 T T T
  0.3329728080637755  0.1667159761289778  0.3091722805844465 T T T
  0.9999601045806740  0.0000018484682037  0.2315480693778205 T T T
  0.3333333349999992  0.1666666650000011  0.1548840244483289 F F F
  0.1666666650000011  0.3333333349999990  0.0000000000000000 F F F
  0.3333333349999992  0.1666666650000011  0.0000000000000000 F F F
  0.0000000000000000  0.0000000000000000  0.0760717089948102 F F F
  0.1666666650000011  0.3333333349999990  0.1548840244483289 F F F
  0.1666702691570218  0.8333016356763902  0.3098151398827454 T T T
  0.3333302120699396  0.6666154099907677  0.3098037446425443 T T T
  0.6666666650000013  0.3333333349999990  0.1548840244483289 F F F
  0.0002396879793551  0.5000777751614887  0.2313541273475085 T T T
  0.1666666650000011  0.8333333349999990  0.0000000000000000 F F F
  0.3333333350000303  0.6666666650000010  0.0000000000000000 F F F
  0.0000000000000162  0.5000000000000001  0.0760717089948102 F F F
  0.1666666650000011  0.8333333349999990  0.1548840244483289 F F F
  0.6666666650000019  0.8333333349999990  0.1548840244483289 F F F
  0.6669940474030258  0.3333906525007121  0.3092149253504301 T T T
  0.8333834731719739  0.1667082225782796  0.3097996493680201 T T T
  0.5000697425485798  0.9999164604333166  0.2313490339682537 T T T
  0.8333333349999990  0.1666666650000011  0.1548840244483289 F F F
  0.6666666650000013  0.3333333349999990  0.0000000000000000 F F F
  0.8333333349999990  0.1666666650000011  0.0000000000000000 F F F
  0.3333333350000303  0.6666666650000010  0.1548840244483289 F F F
  0.0001726844080649  0.4999742381635146  0.3500973933015726 T T T
  0.4999771672246772  0.0002388963350463  0.3500552933680376 T T T
  0.0005206739893110  0.0005303777872101  0.3505222116676526 T T T
  0.4997356161630382  0.4992956598291760  0.3500944477280301 T T T
  0.2642951685416720  0.1797219433689119  0.4147120958227739 T T T
  0.2749587521147041  0.1884080396420657  0.4599431968128726 T T T
  0.3630605826534669  0.1829305566825253  0.4728019335313139 T T T
  0.2991111582950743  0.3974854567545205  0.4977449466746670 T T T
  0.3901629312723070  0.4693881549870420  0.4957391406276456 T T T
  0.2455715157064499  0.4266655860785762  0.4759556369897405 T T T
  0.2860937135937931  0.2830261709506307  0.4744850661530930 T T T
  0.4687382493010441  0.1755082620031904  0.4930797984997077 T T T
  0.4631587132552759  0.0921948469092744  0.4820720444950479 T T T
  0.5514678576164461  0.2458605594212772  0.4764718594150483 T T T
  0.0579930896754337  0.9742520085686059  0.5314008871840917 T T T
  0.9946004233285815  0.9080389586035855  0.5036037539591832 T T T
  0.1244214134411996  0.0413314051994256  0.5045101541122081 T T T
