Ni   P    H    O    H    O    H    O    H    O    H 
   1.00000000000000     
  11.7365814896693994   0.0000000000000000   0.0000000000000000
  -5.8682907448347201  10.1641777236399005   0.0000000000000000
   0.0000000000000000   0.0000000000000000  21.8470000000000013
Ni   P    H    O    H    O    H    O    H    O    H 
60  32  5  1  1  1  3  1  2  1  3  
Selective dynamics
Direct
  0.1994854716175922  0.0000000000000000  0.0796368952856099 F F F
  0.5003020208122297  0.3719244698997770  0.3044489918175447 T T T
  0.6994854716175922  0.0000000000000000  0.0796368952856099 F F F
  0.6267526011638439  0.6269313187876530  0.3051878535257862 T T T
  0.7976934979727327  0.7986477203609144  0.2305831002862310 T T T
  0.4991279373785201  0.7006240968979152  0.2311255679036507 T T T
  0.8677263807581995  0.5000000000000001  0.0063502276059424 F F F
  0.6322736192418006  0.6322736192418007  0.0063502276059424 F F F
  0.5000000000000001  0.8677263807581928  0.0063502276059424 F F F
  0.5000000000000568  0.6994854716175926  0.0796368952856099 F F F
  0.8005145283824079  0.8005145283824081  0.0796368952856099 F F F
  0.3721508679853182  0.4992597978775039  0.3056423099852592 T T T
  0.2009446294199759  0.5000389941627833  0.2307432241748087 T T T
  0.3005145283824079  0.8005145283824081  0.0796368952856099 F F F
  0.0000000000000355  0.6994854716175926  0.0796368952856099 F F F
  0.8703138789575320  0.0000000000000000  0.1548840244483287 F F F
  0.6296861210424680  0.1296861210424680  0.1548840244483287 F F F
  0.5000000000000000  0.3703138789575250  0.1548840244483287 F F F
  0.4987468760242888  0.8725311177799232  0.3052730963011296 T T T
  0.8703138789575320  0.5000000000000001  0.1548840244483287 F F F
  0.6296861210424680  0.6296861210424683  0.1548840244483287 F F F
  0.5000000000000570  0.8703138789575324  0.1548840244483287 F F F
  0.8695495051147999  0.9989924029939987  0.3045540959863687 T T T
  0.7006722744080023  0.9997842724330461  0.2305825861576208 T T T
  0.0000000000000001  0.8677263807581928  0.0063502276059424 F F F
  0.8005145283824078  0.3005145283824078  0.0796368952856099 F F F
  0.5000000000000000  0.3677263807581996  0.0063502276059424 F F F
  0.6322736192418077  0.1322736192418006  0.0063502276059424 F F F
  0.8677263807581994  0.0000000000000000  0.0063502276059424 F F F
  0.5101582150121503  0.2054541114650346  0.2293858470117563 T T T
  0.7986484449743080  0.2984861924387398  0.2309687359088128 T T T
  0.6273290100976753  0.1272825557615017  0.3057065883166333 T T T
  0.5000000000000000  0.1994854716175923  0.0796368952856099 F F F
  0.1322736192418006  0.6322736192418007  0.0063502276059424 F F F
  0.3677263807582278  0.5000000000000001  0.0063502276059424 F F F
  0.3703138789575248  0.0000000000000000  0.1548840244483287 F F F
  0.1296861210424751  0.1296861210424680  0.1548840244483287 F F F
  0.0000000000000001  0.3703138789575250  0.1548840244483287 F F F
  0.6994854716175922  0.5000000000000001  0.0796368952856099 F F F
  0.1221595385911203  0.1260669057297974  0.3079108165678659 T T T
  0.3719211437592878  0.0006353726625333  0.3043662224666404 T T T
  0.2008975388647972  0.0024525510260918  0.2317107973090639 T T T
  0.3005145283824078  0.3005145283824078  0.0796368952856099 F F F
  0.0000000000000000  0.1994854716175923  0.0796368952856099 F F F
  0.0000000000000142  0.3677263807581996  0.0063502276059424 F F F
  0.1322736192418006  0.1322736192418006  0.0063502276059424 F F F
  0.3677263807581994  0.0000000000000000  0.0063502276059424 F F F
  0.0009430440504493  0.2012620831522047  0.2312471785703522 T T T
  0.9992051691349961  0.3730853708173729  0.3051916718185350 T T T
  0.9998136811803948  0.7012809908199825  0.2305695609057214 T T T
  0.2984168429196167  0.7991519588282108  0.2306834398740314 T T T
  0.1279588166166170  0.6283070671673050  0.3049379114843447 T T T
  0.0000000000000356  0.8703138789575324  0.1548840244483287 F F F
  0.1296861210424680  0.6296861210424683  0.1548840244483287 F F F
  0.3703138789575534  0.5000000000000001  0.1548840244483287 F F F
  0.9978813584455659  0.8707415604023795  0.3045452734199770 T T T
  0.1994854716176136  0.5000000000000001  0.0796368952856099 F F F
  0.7009142183684371  0.4999681705627779  0.2310561717173333 T T T
  0.8732420612851191  0.5005545881963650  0.3053658598638422 T T T
  0.2966570778641192  0.2973233670859248  0.2321663517453894 T T T
  0.8333333350000061  0.6666666650000012  0.0000000000000000 F F F
  0.6666666650000010  0.8333333349999990  0.0000000000000000 F F F
  0.8333333350000061  0.6666666650000012  0.1548840244483287 F F F
  0.4997148925775324  0.5002047120923566  0.2311917983931149 T T T
  0.8319244789857335  0.6652606157120484  0.3094175804705592 T T T
  0.6641392126282877  0.8319639973372279  0.3090521854490721 T T T
  0.5000000000000000  0.5000000000000001  0.0760717089948102 F F F
  0.5000000000000000  0.0000000000000000  0.0760717089948102 F F F
  0.1656692713643732  0.3354373334402302  0.3084190960774932 T T T
  0.3348015505949211  0.1678049133152236  0.3088072792444634 T T T
  0.9991777132395444  0.9999071881355933  0.2313491121210643 T T T
  0.3333333349999990  0.1666666650000011  0.1548840244483287 F F F
  0.1666666650000010  0.3333333349999991  0.0000000000000000 F F F
  0.3333333349999990  0.1666666650000011  0.0000000000000000 F F F
  0.0000000000000000  0.0000000000000000  0.0760717089948102 F F F
  0.1666666650000010  0.3333333349999991  0.1548840244483287 F F F
  0.1661758348868978  0.8341168961459409  0.3090967725642473 T T T
  0.3332621884882257  0.6661657847931023  0.3099946751079539 T T T
  0.6666666650000010  0.3333333349999991  0.1548840244483287 F F F
  0.9999625099931406  0.5003608498849025  0.2312082655455717 T T T
  0.1666666650000011  0.8333333349999990  0.0000000000000000 F F F
  0.3333333350000274  0.6666666650000012  0.0000000000000000 F F F
  0.0000000000000214  0.5000000000000001  0.0760717089948102 F F F
  0.1666666650000011  0.8333333349999990  0.1548840244483287 F F F
  0.6666666650000010  0.8333333349999990  0.1548840244483287 F F F
  0.6681924170080729  0.3340989813861888  0.3096607208046409 T T T
  0.8329561189969569  0.1671879444686017  0.3099596391099106 T T T
  0.5006844623497468  0.0004103252479615  0.2312225427645696 T T T
  0.8333333349999988  0.1666666650000011  0.1548840244483287 F F F
  0.6666666650000010  0.3333333349999991  0.0000000000000000 F F F
  0.8333333349999988  0.1666666650000011  0.0000000000000000 F F F
  0.3333333350000274  0.6666666650000012  0.1548840244483287 F F F
  0.0008276779348499  0.5013181520817885  0.3501665712109350 T T T
  0.4994792472591152  0.0017328577999990  0.3500746174220858 T T T
  0.9924138222169802  0.9964476260892947  0.3496370047457298 T T T
  0.4983212028890437  0.4973415372587249  0.3499656330991587 T T T
  0.2466369995997500  0.1645537570541622  0.4776799589745831 T T T
  0.2779175915099307  0.1898957776095049  0.5197474040744444 T T T
  0.3689865796237781  0.1870690630288196  0.5254448556204387 T T T
  0.3045365768988793  0.4089711283447336  0.5418218534696974 T T T
  0.3923295689876481  0.4801122435871342  0.5309860102621199 T T T
  0.2425546353024719  0.4223982065834548  0.5173148650219755 T T T
  0.2917237951849938  0.2873503651284863  0.5283457603414711 T T T
  0.4813446818154770  0.1800251430825700  0.5356483131736007 T T T
  0.4678572236011975  0.0943690886521992  0.5228197848424091 T T T
  0.5545718282713745  0.2458409457661921  0.5112655363353680 T T T
  0.0437921554301595  0.9650141762163477  0.5771689984689857 T T T
  0.9966027610907017  0.9123472432591743  0.5416405562581265 T T T
  0.1219686358773364  0.0407932884535678  0.5599043153432125 T T T
  0.2300223968107328  0.1455743052412890  0.3599563550481737 T T T
