Ni   P    H    O    H    O    H    O    H    O    H 
   1.00000000000000     
  11.7365814896693994   0.0000000000000000   0.0000000000000000
  -5.8682907448347201  10.1641777236399005   0.0000000000000000
   0.0000000000000000   0.0000000000000000  21.8470000000000013
Ni   P    H    O    H    O    H    O    H    O    H 
60  32  5  1  1  1  3  1  2  1  3  
Selective dynamics
Direct
  0.1994854716175922  0.0000000000000000  0.0796368952856099 F F F
  0.4999808017609815  0.3724321422804399  0.3053398107596477 T T T
  0.6994854716175922  0.0000000000000000  0.0796368952856099 F F F
  0.6275712838676601  0.6275627466470275  0.3051993975284413 T T T
  0.7984942442936043  0.7984386064241323  0.2306903169072704 T T T
  0.4998443954747337  0.7014402210318753  0.2307248460644133 T T T
  0.8677263807581995  0.5000000000000001  0.0063502276059424 F F F
  0.6322736192418006  0.6322736192418007  0.0063502276059424 F F F
  0.5000000000000000  0.8677263807581925  0.0063502276059424 F F F
  0.5000000000000568  0.6994854716175924  0.0796368952856099 F F F
  0.8005145283824079  0.8005145283824081  0.0796368952856099 F F F
  0.3724560837820240  0.4999703134389845  0.3053749612958016 T T T
  0.2015667833422128  0.4999053860555174  0.2307469907022808 T T T
  0.3005145283824079  0.8005145283824081  0.0796368952856099 F F F
  0.0000000000000355  0.6994854716175924  0.0796368952856099 F F F
  0.8703138789575320  0.0000000000000000  0.1548840244483287 F F F
  0.6296861210424680  0.1296861210424680  0.1548840244483287 F F F
  0.5000000000000000  0.3703138789575250  0.1548840244483287 F F F
  0.4999943325748019  0.8723974077221416  0.3052348741819606 T T T
  0.8703138789575320  0.5000000000000001  0.1548840244483287 F F F
  0.6296861210424680  0.6296861210424682  0.1548840244483287 F F F
  0.5000000000000570  0.8703138789575322  0.1548840244483287 F F F
  0.8724340191698873  0.9999209503031485  0.3052658875253275 T T T
  0.7015773597512387  0.0000800433010821  0.2307389820524794 T T T
  0.0000000000000000  0.8677263807581925  0.0063502276059424 F F F
  0.8005145283824078  0.3005145283824078  0.0796368952856099 F F F
  0.5000000000000000  0.3677263807581995  0.0063502276059424 F F F
  0.6322736192418077  0.1322736192418006  0.0063502276059424 F F F
  0.8677263807581994  0.0000000000000000  0.0063502276059424 F F F
  0.4999639040745479  0.2015264915024928  0.2307961325698889 T T T
  0.7984022569371196  0.2983444389490384  0.2307486636204275 T T T
  0.6275506916196001  0.1275139521368520  0.3053698676828743 T T T
  0.5000000000000000  0.1994854716175923  0.0796368952856099 F F F
  0.1322736192418006  0.6322736192418007  0.0063502276059424 F F F
  0.3677263807582278  0.5000000000000001  0.0063502276059424 F F F
  0.3703138789575248  0.0000000000000000  0.1548840244483287 F F F
  0.1296861210424751  0.1296861210424680  0.1548840244483287 F F F
  0.0000000000000000  0.3703138789575250  0.1548840244483287 F F F
  0.6994854716175922  0.5000000000000001  0.0796368952856099 F F F
  0.1276339011641090  0.1275396609199428  0.3052461703732721 T T T
  0.3724675325171097  0.9999838160809695  0.3053754846018848 T T T
  0.2015867812231164  0.9999477864095291  0.2307487964747137 T T T
  0.3005145283824078  0.3005145283824078  0.0796368952856099 F F F
  0.9999999999999929  0.1994854716175923  0.0796368952856099 F F F
  0.0000000000000142  0.3677263807581995  0.0063502276059424 F F F
  0.1322736192418006  0.1322736192418006  0.0063502276059424 F F F
  0.3677263807581994  0.0000000000000000  0.0063502276059424 F F F
  0.0000306992584376  0.2015135140306954  0.2307533186695182 T T T
  0.9999749287426924  0.3723907232391929  0.3052416049713230 T T T
  0.0000184596484342  0.7016231030700449  0.2307269948625947 T T T
  0.2984375647420456  0.7985377496554603  0.2307356553568935 T T T
  0.1275748767517030  0.6275598515473937  0.3051951796957245 T T T
  0.0000000000000356  0.8703138789575322  0.1548840244483287 F F F
  0.1296861210424680  0.6296861210424682  0.1548840244483287 F F F
  0.3703138789575534  0.5000000000000001  0.1548840244483287 F F F
  0.0000179148604404  0.8724149831247479  0.3052963978577866 T T T
  0.1994854716176207  0.5000000000000001  0.0796368952856099 F F F
  0.7014334995181379  0.4998347575670853  0.2307075333045518 T T T
  0.8723918572174809  0.4999877035200347  0.3051645872327493 T T T
  0.2984751267264701  0.2984799708073144  0.2307388593836619 T T T
  0.8333333350000061  0.6666666650000012  0.0000000000000000 F F F
  0.6666666650000010  0.8333333349999990  0.0000000000000000 F F F
  0.8333333350000061  0.6666666650000012  0.1548840244483287 F F F
  0.4999076681549962  0.4999189915307095  0.2314659887768363 T T T
  0.8333280878715051  0.6666689454202753  0.3089542635770078 T T T
  0.6666755078847632  0.8333215726409173  0.3089280299770134 T T T
  0.5000000000000000  0.5000000000000001  0.0760717089948102 F F F
  0.5000000000000000  0.0000000000000000  0.0760717089948102 F F F
  0.1666600993250749  0.3333534136430661  0.3089611961436375 T T T
  0.3333815708887893  0.1666460661361822  0.3090017238595660 T T T
  0.0000516533104396  0.9999974622539364  0.2314547745912218 T T T
  0.3333333349999990  0.1666666650000011  0.1548840244483287 F F F
  0.1666666650000010  0.3333333349999991  0.0000000000000000 F F F
  0.3333333349999990  0.1666666650000011  0.0000000000000000 F F F
  0.0000000000000000  0.0000000000000000  0.0760717089948102 F F F
  0.1666666650000010  0.3333333349999991  0.1548840244483287 F F F
  0.1666729071037835  0.8333365019624345  0.3090136669048993 T T T
  0.3333205452390539  0.6666252868490649  0.3089915205697619 T T T
  0.6666666650000010  0.3333333349999991  0.1548840244483287 F F F
  0.0000003487877661  0.4999630519158562  0.2314211479736332 T T T
  0.1666666650000011  0.8333333349999990  0.0000000000000000 F F F
  0.3333333350000274  0.6666666650000012  0.0000000000000000 F F F
  0.0000000000000356  0.5000000000000001  0.0760717089948102 F F F
  0.1666666650000011  0.8333333349999990  0.1548840244483287 F F F
  0.6666666650000010  0.8333333349999990  0.1548840244483287 F F F
  0.6666500836325043  0.3332888862246561  0.3089958770585047 T T T
  0.8333367424866214  0.1665967831805137  0.3090646466119611 T T T
  0.5000041844654248  0.0000582808135753  0.2314824548850955 T T T
  0.8333333349999988  0.1666666650000011  0.1548840244483287 F F F
  0.6666666650000010  0.3333333349999991  0.0000000000000000 F F F
  0.8333333349999988  0.1666666650000011  0.0000000000000000 F F F
  0.3333333350000274  0.6666666650000012  0.1548840244483287 F F F
  0.9999528482009100  0.4999668885722194  0.3499342511389240 T T T
  0.5000841306585275  0.9999661814357103  0.3501284167558698 T T T
  0.9994920806849440  0.9990564957988620  0.3499414334794583 T T T
  0.5000883690636917  0.5001176272818463  0.3500995308156430 T T T
  0.0485362179350349  0.1465720724892850  0.4713859841956121 T T T
  0.2750011163981798  0.1738056600184320  0.5109582021734886 T T T
  0.3605442098992325  0.1782435115044908  0.5187621211695278 T T T
  0.2964228742005461  0.4117211297409359  0.5414687106271840 T T T
  0.3857853481579970  0.4863228493825601  0.5404920413407075 T T T
  0.2459801500292944  0.4349259121337744  0.5139051711650104 T T T
  0.2872496853206860  0.2612527436489119  0.5222249399539635 T T T
  0.5080044492253594  0.1769916418443898  0.5323961847597546 T T T
  0.4988998545143777  0.0917113543451320  0.5229513333631458 T T T
  0.5804729916352420  0.2402164840778224  0.5070884000307825 T T T
  0.0749136510706789  0.9697936656644328  0.5725773170206377 T T T
  0.0058857706262700  0.9229768978340118  0.5424850232460695 T T T
  0.1470831089544082  0.0448780929608720  0.5497410834258668 T T T
  0.9897001908472887  0.1447340421063249  0.4568063668327474 T T T
