Ni   P    H    O    H    O    H    O    H    O    H 
   1.00000000000000     
  11.7365814896693994   0.0000000000000000   0.0000000000000000
  -5.8682907448347201  10.1641777236399005   0.0000000000000000
   0.0000000000000000   0.0000000000000000  21.8470000000000013
Ni   P    H    O    H    O    H    O    H    O    H 
60  32  5  1  2  1  3  1  2  1  2  
Selective dynamics
Direct
  0.1994854716175922  0.0000000000000000  0.0796368952856099 F F F
  0.4997841000383969  0.3721086362101666  0.3056232909143721 T T T
  0.6994854716175924  0.0000000000000000  0.0796368952856099 F F F
  0.6267825485453055  0.6270545148359374  0.3051898963972682 T T T
  0.7976769746256765  0.7985264641170426  0.2304680733731918 T T T
  0.4992134999616902  0.7005362344310246  0.2310395768817375 T T T
  0.8677263807581999  0.5000000000000001  0.0063502276059424 F F F
  0.6322736192418008  0.6322736192418008  0.0063502276059424 F F F
  0.5000000000000004  0.8677263807581930  0.0063502276059424 F F F
  0.5000000000000286  0.6994854716175924  0.0796368952856099 F F F
  0.8005145283824080  0.8005145283824081  0.0796368952856099 F F F
  0.3718885324761770  0.4993777205646790  0.3054896539957278 T T T
  0.2009174392149378  0.5001252609869701  0.2306226081915156 T T T
  0.3005145283824079  0.8005145283824081  0.0796368952856099 F F F
  0.0000000000000215  0.6994854716175924  0.0796368952856099 F F F
  0.8703138789575322  0.0000000000000000  0.1548840244483288 F F F
  0.6296861210424680  0.1296861210424680  0.1548840244483288 F F F
  0.5000000000000001  0.3703138789575251  0.1548840244483288 F F F
  0.4987046285987183  0.8725148153201733  0.3050842843498280 T T T
  0.8703138789575323  0.5000000000000001  0.1548840244483288 F F F
  0.6296861210424681  0.6296861210424681  0.1548840244483288 F F F
  0.5000000000000289  0.8703138789575326  0.1548840244483288 F F F
  0.8695317488866731  0.9990814143836507  0.3042830395034365 T T T
  0.7006313846214866  0.9999541715606288  0.2304544718606193 T T T
  0.0000000000000002  0.8677263807581930  0.0063502276059424 F F F
  0.8005145283824079  0.3005145283824078  0.0796368952856099 F F F
  0.5000000000000002  0.3677263807581996  0.0063502276059424 F F F
  0.6322736192418077  0.1322736192418006  0.0063502276059424 F F F
  0.8677263807581994  0.0000000000000000  0.0063502276059424 F F F
  0.5097776674022066  0.2057310278354238  0.2294852163221521 T T T
  0.7986730698475554  0.2985151754390457  0.2308078766618845 T T T
  0.6273831493758915  0.1274611570714855  0.3054348008463789 T T T
  0.5000000000000002  0.1994854716175923  0.0796368952856099 F F F
  0.1322736192418007  0.6322736192418008  0.0063502276059424 F F F
  0.3677263807582067  0.5000000000000001  0.0063502276059424 F F F
  0.3703138789575249  0.0000000000000000  0.1548840244483288 F F F
  0.1296861210424751  0.1296861210424680  0.1548840244483288 F F F
  0.0000000000000001  0.3703138789575251  0.1548840244483288 F F F
  0.6994854716175926  0.5000000000000001  0.0796368952856099 F F F
  0.1223440614332267  0.1257684506752700  0.3082912983979765 T T T
  0.3717754541343669  0.0007331740200644  0.3043014061969364 T T T
  0.2008641561813900  0.0023720287062482  0.2316504810431503 T T T
  0.3005145283824079  0.3005145283824078  0.0796368952856099 F F F
  0.0000000000000001  0.1994854716175923  0.0796368952856099 F F F
  0.0000000000000072  0.3677263807581996  0.0063502276059424 F F F
  0.1322736192418006  0.1322736192418006  0.0063502276059424 F F F
  0.3677263807581994  0.0000000000000000  0.0063502276059424 F F F
  0.0016591181514734  0.2014674747833003  0.2312466133302211 T T T
  0.9991988733299674  0.3729722559881428  0.3050890807683348 T T T
  0.9994402904486767  0.7009451524110965  0.2304509630451833 T T T
  0.2982364269665092  0.7992818016693660  0.2306841477328072 T T T
  0.1277306373781726  0.6282486324049780  0.3049196471845289 T T T
  0.0000000000000216  0.8703138789575326  0.1548840244483288 F F F
  0.1296861210424681  0.6296861210424681  0.1548840244483288 F F F
  0.3703138789575322  0.5000000000000001  0.1548840244483288 F F F
  0.9977035044696512  0.8704513592475128  0.3043550739643296 T T T
  0.1994854716175995  0.5000000000000001  0.0796368952856099 F F F
  0.7000665545464387  0.4989045948599660  0.2313205349788580 T T T
  0.8729141064935277  0.5001533074932305  0.3053751848553344 T T T
  0.2969544133985731  0.2967471538991810  0.2324638151696672 T T T
  0.8333333350000065  0.6666666650000010  0.0000000000000000 F F F
  0.6666666650000015  0.8333333349999990  0.0000000000000000 F F F
  0.8333333350000065  0.6666666650000010  0.1548840244483288 F F F
  0.4996158754144569  0.4996516745673171  0.2313721641915140 T T T
  0.8317535221749356  0.6649607068339265  0.3093859771824256 T T T
  0.6641569887451728  0.8320719810169626  0.3087454691500940 T T T
  0.5000000000000003  0.5000000000000001  0.0760717089948102 F F F
  0.5000000000000000  0.0000000000000000  0.0760717089948102 F F F
  0.1656598240232363  0.3352441471139550  0.3082458688243969 T T T
  0.3349948890789476  0.1679216707927629  0.3104989182023677 T T T
  0.9995080490253990  0.0000733468678114  0.2313559602923015 T T T
  0.3333333349999992  0.1666666650000011  0.1548840244483288 F F F
  0.1666666650000011  0.3333333349999990  0.0000000000000000 F F F
  0.3333333349999992  0.1666666650000011  0.0000000000000000 F F F
  0.0000000000000000  0.0000000000000000  0.0760717089948102 F F F
  0.1666666650000011  0.3333333349999990  0.1548840244483288 F F F
  0.1660786514646980  0.8340828116875881  0.3088995000143637 T T T
  0.3331018088608191  0.6663044632985685  0.3099249240671906 T T T
  0.6666666650000013  0.3333333349999990  0.1548840244483288 F F F
  0.9998375415893476  0.5002938479403939  0.2312229660071878 T T T
  0.1666666650000011  0.8333333349999990  0.0000000000000000 F F F
  0.3333333350000063  0.6666666650000010  0.0000000000000000 F F F
  0.0000000000000072  0.5000000000000001  0.0760717089948102 F F F
  0.1666666650000011  0.8333333349999990  0.1548840244483288 F F F
  0.6666666650000015  0.8333333349999990  0.1548840244483288 F F F
  0.6675830941733448  0.3338547468467874  0.3098926779567490 T T T
  0.8328890404286874  0.1671935142048593  0.3098865620153721 T T T
  0.5005067652320342  0.0005622820392660  0.2311664636321709 T T T
  0.8333333349999990  0.1666666650000011  0.1548840244483288 F F F
  0.6666666650000013  0.3333333349999990  0.0000000000000000 F F F
  0.8333333349999990  0.1666666650000011  0.0000000000000000 F F F
  0.3333333350000063  0.6666666650000010  0.1548840244483288 F F F
  0.0007029511338451  0.5010271152283136  0.3501243769751644 T T T
  0.5000656385131919  0.0021475826643921  0.3496259507956646 T T T
  0.9919208090996832  0.9960497086601786  0.3493903008175741 T T T
  0.4982303507028661  0.4977719105841772  0.3502224194374234 T T T
  0.2267274549266650  0.1431450856068627  0.3612852679904479 T T T
  0.3899220017505235  0.2335325452570708  0.4763228104025227 T T T
  0.4177754357498785  0.2573534152432602  0.4334719800813140 T T T
  0.2881767227666059  0.2162610086507083  0.4827774778940978 T T T
  0.4029368878035074  0.0381820642226187  0.5081772202825171 T T T
  0.3298080095776634  0.9825875550088038  0.5353173994956333 T T T
  0.4002170510575531  0.9818138279817128  0.4746650207526831 T T T
  0.3944892040579817  0.1453761619593419  0.4884585857869652 T T T
  0.1680623777639006  0.1960745162558923  0.4960115145522224 T T T
  0.1524745785275071  0.2641156559587969  0.4790260019532208 T T T
  0.0978107711736505  0.1113136044666595  0.4811291443121500 T T T
  0.5705843744012286  0.4601262540278587  0.5549553568436935 T T T
  0.6280019158177631  0.5279182675388857  0.5260909759471818 T T T
  0.5120403033958411  0.3855317597030245  0.5289776731251651 T T T
