Ni   P    H    O    H    O    H    O    H    O    H 
   1.00000000000000     
  11.7365814896693994   0.0000000000000000   0.0000000000000000
  -5.8682907448347201  10.1641777236399005   0.0000000000000000
   0.0000000000000000   0.0000000000000000  21.8470000000000013
Ni   P    H    O    H    O    H    O    H    O    H 
60  32  4  1  2  1  3  1  2  1  2  
Selective dynamics
Direct
  0.1994854716175922  0.0000000000000000  0.0796368952856099 F F F
  0.5000367878454723  0.3634895908201957  0.3008468222413134 T T T
  0.6994854716175922  0.0000000000000000  0.0796368952856099 F F F
  0.6361546658563375  0.6361551359324319  0.3008874075423577 T T T
  0.8028844874939959  0.8029474326611360  0.2288822746078353 T T T
  0.4993668565116440  0.7017126871139251  0.2324880126704623 T T T
  0.8677263807581995  0.5000000000000001  0.0063502276059424 F F F
  0.6322736192418006  0.6322736192418007  0.0063502276059424 F F F
  0.5000000000000001  0.8677263807581929  0.0063502276059424 F F F
  0.5000000000000355  0.6994854716175928  0.0796368952856099 F F F
  0.8005145283824079  0.8005145283824081  0.0796368952856099 F F F
  0.3638369457488132  0.4996943393234927  0.3020018106153906 T T T
  0.1973503698342061  0.4998553393854139  0.2291836438970946 T T T
  0.3005145283824079  0.8005145283824081  0.0796368952856099 F F F
  0.0000000000000286  0.6994854716175928  0.0796368952856099 F F F
  0.8703138789575320  0.0000000000000000  0.1548840244483287 F F F
  0.6296861210424680  0.1296861210424680  0.1548840244483287 F F F
  0.5000000000000000  0.3703138789575252  0.1548840244483287 F F F
  0.5000199229821046  0.8728294250585092  0.3065123480427413 T T T
  0.8703138789575320  0.5000000000000001  0.1548840244483287 F F F
  0.6296861210424680  0.6296861210424683  0.1548840244483287 F F F
  0.5000000000000356  0.8703138789575325  0.1548840244483287 F F F
  0.8740633963956217  0.0016972367238259  0.3054281027511767 T T T
  0.7003990834637316  0.9976304622976072  0.2309507456268686 T T T
  0.0000000000000001  0.8677263807581929  0.0063502276059424 F F F
  0.8005145283824078  0.3005145283824078  0.0796368952856099 F F F
  0.5000000000000000  0.3677263807581997  0.0063502276059424 F F F
  0.6322736192418077  0.1322736192418006  0.0063502276059424 F F F
  0.8677263807581994  0.0000000000000000  0.0063502276059424 F F F
  0.4998248864060143  0.1968415196020644  0.2288449127176266 T T T
  0.7970178584810367  0.2996230869879628  0.2308644751892457 T T T
  0.6276048919928524  0.1258153933882522  0.3054368624284283 T T T
  0.5000000000000000  0.1994854716175923  0.0796368952856099 F F F
  0.1322736192418006  0.6322736192418007  0.0063502276059424 F F F
  0.3677263807582209  0.5000000000000001  0.0063502276059424 F F F
  0.3703138789575248  0.0000000000000000  0.1548840244483287 F F F
  0.1296861210424751  0.1296861210424680  0.1548840244483287 F F F
  0.0000000000000001  0.3703138789575252  0.1548840244483287 F F F
  0.6994854716175922  0.5000000000000001  0.0796368952856099 F F F
  0.1271039372153312  0.1270795472971969  0.3063810381602016 T T T
  0.3722794990514534  0.9980841492771105  0.3054316491120431 T T T
  0.2026951065602385  0.0022579011160877  0.2309085439464109 T T T
  0.3005145283824078  0.3005145283824078  0.0796368952856099 F F F
 -0.0000000000000000  0.1994854716175923  0.0796368952856099 F F F
  0.0000000000000000  0.3677263807581997  0.0063502276059424 F F F
  0.1322736192418006  0.1322736192418006  0.0063502276059424 F F F
  0.3677263807581994  0.0000000000000000  0.0063502276059424 F F F
  0.0018670650148531  0.2023700933017664  0.2308137389210989 T T T
  0.9977534463952465  0.3722019108982306  0.3052500323296845 T T T
  0.9976261934740256  0.7004543568242100  0.2308944735176169 T T T
  0.2996615973171826  0.7972759615250875  0.2308964141503443 T T T
  0.1257940410021779  0.6276703749579501  0.3052893656778028 T T T
  0.0000000000000286  0.8703138789575325  0.1548840244483287 F F F
  0.1296861210424680  0.6296861210424683  0.1548840244483287 F F F
  0.3703138789575393  0.5000000000000001  0.1548840244483287 F F F
  0.0017459990956248  0.8740768113777879  0.3053918587658035 T T T
  0.1994854716176066  0.5000000000000001  0.0796368952856099 F F F
  0.7021137862576434  0.5000432248338068  0.2323154731310998 T T T
  0.8727466224925263  0.5000899043670356  0.3063742053602020 T T T
  0.2976493807298817  0.2980908809297667  0.2324732751580644 T T T
  0.8333333350000061  0.6666666650000012  0.0000000000000000 F F F
  0.6666666650000010  0.8333333349999990  0.0000000000000000 F F F
  0.8333333350000061  0.6666666650000012  0.1548840244483287 F F F
  0.4994462083216250  0.4998966811505119  0.2336371729185800 T T T
  0.8373003292213064  0.6688184333638716  0.3090202766580032 T T T
  0.6687343856220672  0.8372808336379728  0.3090544191866687 T T T
  0.5000000000000000  0.5000000000000001  0.0760717089948102 F F F
  0.5000000000000000  0.0000000000000000  0.0760717089948102 F F F
  0.1615307128375789  0.3308086424783194  0.3084041958826503 T T T
  0.3312162654561960  0.1623144699076002  0.3089593418654699 T T T
  0.0012073190138388  0.0011744629825392  0.2314508288963786 T T T
  0.3333333349999990  0.1666666650000011  0.1548840244483287 F F F
  0.1666666650000010  0.3333333349999991  0.0000000000000000 F F F
  0.3333333349999990  0.1666666650000011  0.0000000000000000 F F F
  0.0000000000000000  0.0000000000000000  0.0760717089948102 F F F
  0.1666666650000010  0.3333333349999991  0.1548840244483287 F F F
  0.1666029273558010  0.8332971063655920  0.3099288722854676 T T T
  0.3310640354848245  0.6687932385939582  0.3089137297034991 T T T
  0.6666666650000010  0.3333333349999991  0.1548840244483287 F F F
  0.9986022730231755  0.5000509616900971  0.2313997891031772 T T T
  0.1666666650000011  0.8333333349999990  0.0000000000000000 F F F
  0.3333333350000203  0.6666666650000012  0.0000000000000000 F F F
  0.0000000000000002  0.5000000000000001  0.0760717089948102 F F F
  0.1666666650000011  0.8333333349999990  0.1548840244483287 F F F
  0.6666666650000010  0.8333333349999990  0.1548840244483287 F F F
  0.6687516058860414  0.3311514691792404  0.3089176137512646 T T T
  0.8331583208117517  0.1665124594904743  0.3099721763732612 T T T
  0.5000131579039201  0.9986387683255146  0.2314810746449234 T T T
  0.8333333349999988  0.1666666650000011  0.1548840244483287 F F F
  0.6666666650000010  0.3333333349999991  0.0000000000000000 F F F
  0.8333333349999988  0.1666666650000011  0.0000000000000000 F F F
  0.3333333350000203  0.6666666650000012  0.1548840244483287 F F F
  0.9998362323269219  0.4999982880891349  0.3505902955783200 T T T
  0.4999632045898227  0.9999011109042054  0.3508288647809119 T T T
  0.9999070363081241  0.9999317711706005  0.3507669243972397 T T T
  0.3740937836085787  0.4850817439061227  0.4288914355759174 T T T
  0.3886598296676658  0.2330634031019365  0.4881224310436048 T T T
  0.3858415497544633  0.4290243764478612  0.4363312437539807 T T T
  0.2965058075577309  0.2099163895683254  0.4968312187809884 T T T
  0.4181487320167699  0.0192411306695503  0.5122887042860992 T T T
  0.3986744933437000  0.9931770438064285  0.5550754308118263 T T T
  0.3582628929806899  0.9413538658383170  0.4888833733475756 T T T
  0.3942743987253770  0.1529568077063152  0.4970618246006129 T T T
  0.1360982685931029  0.1792480103726922  0.5144535114276656 T T T
  0.1213180209385894  0.2488141398530554  0.4992332045005201 T T T
  0.0675567582640058  0.0984907555814603  0.4958229909086558 T T T
  0.5679090122538200  0.4470856122351105  0.5518083545994218 T T T
  0.6186353332621655  0.5130874312783623  0.5210289414488696 T T T
  0.5020293366240505  0.3688842336543464  0.5281157455772157 T T T
