Ni   P    H    O    H    O    H    O    H    O    H 
   1.00000000000000     
  11.7365814896693994   0.0000000000000000   0.0000000000000000
  -5.8682907448347201  10.1641777236399005   0.0000000000000000
   0.0000000000000000   0.0000000000000000  21.8470000000000013
Ni   P    H    O    H    O    H    O    H    O    H 
60  36  5  1  2  1  3  1  2  1  3  
Selective dynamics
Direct
  0.1994854716175922  0.0000000000000000  0.0796368952856099 F F F
  0.5008518790774019  0.3708820545187166  0.3045794476642030 T T T
  0.6994854716175922  0.0000000000000000  0.0796368952856099 F F F
  0.6324260371710935  0.6323101788249801  0.3075592567603707 T T T
  0.8014020323973412  0.8015118578975091  0.2315254819189931 T T T
  0.4981473165222638  0.6981776037724359  0.2315343599149955 T T T
  0.8677263807581994  0.5000000000000000  0.0063502276059424 F F F
  0.6322736192418006  0.6322736192418006  0.0063502276059424 F F F
  0.5000000000000000  0.8677263807581923  0.0063502276059424 F F F
  0.5000000000000497  0.6994854716175922  0.0796368952856099 F F F
  0.8005145283824078  0.8005145283824078  0.0796368952856099 F F F
  0.3672373083592859  0.4983776828129436  0.3089347262110351 T T T
  0.2025267580261030  0.5043501776449162  0.2319170587529271 T T T
  0.3005145283824078  0.8005145283824078  0.0796368952856099 F F F
  0.0000000000000426  0.6994854716175922  0.0796368952856099 F F F
  0.8703138789575320  0.0000000000000000  0.1548840244483287 F F F
  0.6296861210424680  0.1296861210424680  0.1548840244483287 F F F
  0.5000000000000000  0.3703138789575249  0.1548840244483287 F F F
  0.4995171670672960  0.8666850347713293  0.3068629114631776 T T T
  0.8703138789575320  0.5000000000000000  0.1548840244483287 F F F
  0.6296861210424680  0.6296861210424680  0.1548840244483287 F F F
  0.5000000000000497  0.8703138789575320  0.1548840244483287 F F F
  0.8705023993874406  0.0022362228987021  0.3067776637175115 T T T
  0.7012805571052496  0.0046439745276885  0.2313032647286377 T T T
  0.0000000000000000  0.8677263807581923  0.0063502276059424 F F F
  0.8005145283824078  0.3005145283824078  0.0796368952856099 F F F
  0.5000000000000000  0.3677263807581994  0.0063502276059424 F F F
  0.6322736192418077  0.1322736192418006  0.0063502276059424 F F F
  0.8677263807581994  0.0000000000000000  0.0063502276059424 F F F
  0.5063768519201517  0.2013190266325893  0.2313036120206391 T T T
  0.7972449606922396  0.3026238835554409  0.2323030988909665 T T T
  0.6311231363405909  0.1330029188805852  0.3089720848559026 T T T
  0.5000000000000000  0.1994854716175922  0.0796368952856099 F F F
  0.1322736192418006  0.6322736192418006  0.0063502276059424 F F F
  0.3677263807582278  0.5000000000000000  0.0063502276059424 F F F
  0.3703138789575249  0.0000000000000000  0.1548840244483287 F F F
  0.1296861210424751  0.1296861210424680  0.1548840244483287 F F F
  0.0000000000000000  0.3703138789575249  0.1548840244483287 F F F
  0.6994854716175922  0.5000000000000000  0.0796368952856099 F F F
  0.1311727715205890  0.1298721856377298  0.3073483077014458 T T T
  0.3721980867018431  0.0025658938404760  0.3026231720433898 T T T
  0.1914967738701492  0.9919141766606145  0.2283813570934043 T T T
  0.3005145283824078  0.3005145283824078  0.0796368952856099 F F F
  0.0000000000000000  0.1994854716175922  0.0796368952856099 F F F
  0.0000000000000142  0.3677263807581994  0.0063502276059424 F F F
  0.1322736192418006  0.1322736192418006  0.0063502276059424 F F F
  0.3677263807581994  0.0000000000000000  0.0063502276059424 F F F
  0.0028238983739470  0.1969092198585543  0.2299415146829276 T T T
  0.0011965233343147  0.3711815621827057  0.3023990909078336 T T T
  0.0011043166748763  0.6998532991681330  0.2314081470710434 T T T
  0.3010636044431507  0.8002114104994789  0.2319511478694096 T T T
  0.1322743018339452  0.6320530928890875  0.3080615609108577 T T T
  0.0000000000000426  0.8703138789575320  0.1548840244483287 F F F
  0.1296861210424680  0.6296861210424680  0.1548840244483287 F F F
  0.3703138789575533  0.5000000000000000  0.1548840244483287 F F F
  0.0003589795918657  0.8689656808498540  0.3072236955184025 T T T
  0.1994854716176064  0.5000000000000000  0.0796368952856099 F F F
  0.7001167037405907  0.5017483988929499  0.2324806136921538 T T T
  0.8692522774114408  0.4996447668387134  0.3082313200598890 T T T
  0.2991050614360447  0.3021752014299608  0.2324676851717271 T T T
  0.8333333350000061  0.6666666650000010  0.0000000000000000 F F F
  0.6666666650000010  0.8333333349999990  0.0000000000000000 F F F
  0.8333333350000061  0.6666666650000010  0.1548840244483287 F F F
  0.4990391568866599  0.5000223027079471  0.2324366833332761 T T T
  0.8342229563209997  0.6674639531088431  0.3084301873467084 T T T
  0.6698172610779380  0.8361260219704789  0.3053651366188390 T T T
  0.5000000000000000  0.5000000000000000  0.0760717089948102 F F F
  0.5000000000000000  0.0000000000000000  0.0760717089948102 F F F
  0.1634121073899735  0.3312297902621992  0.3102625760791398 T T T
  0.3339002582898019  0.1653966422343842  0.3111636648249174 T T T
  0.0008594234052310  0.0001527926765021  0.2320776300788623 T T T
  0.3333333349999990  0.1666666650000010  0.1548840244483287 F F F
  0.1666666650000010  0.3333333349999990  0.0000000000000000 F F F
  0.3333333349999990  0.1666666650000010  0.0000000000000000 F F F
  0.0000000000000000  0.0000000000000000  0.0760717089948102 F F F
  0.1666666650000010  0.3333333349999990  0.1548840244483287 F F F
  0.1707378119545879  0.8380111130186023  0.3083549642923700 T T T
  0.3320957334229462  0.6659700283083083  0.3074607985281332 T T T
  0.6666666650000010  0.3333333349999990  0.1548840244483287 F F F
  0.0003290005597734  0.5015419458090946  0.2319465064873754 T T T
  0.1666666650000010  0.8333333349999990  0.0000000000000000 F F F
  0.3333333350000274  0.6666666650000010  0.0000000000000000 F F F
  0.0000000000000142  0.5000000000000000  0.0760717089948102 F F F
  0.1666666650000010  0.8333333349999990  0.1548840244483287 F F F
  0.6666666650000010  0.8333333349999990  0.1548840244483287 F F F
  0.6668394860716518  0.3351583657777866  0.3086281294109767 T T T
  0.8370976362244349  0.1712430184243487  0.3090378996596144 T T T
  0.5018392334598190  0.0012405381737963  0.2319208654868348 T T T
  0.8333333349999990  0.1666666650000010  0.1548840244483287 F F F
  0.6666666650000010  0.3333333349999990  0.0000000000000000 F F F
  0.8333333349999990  0.1666666650000010  0.0000000000000000 F F F
  0.3333333350000274  0.6666666650000010  0.1548840244483287 F F F
  0.0011305267950590  0.5493635132828842  0.3867822840512929 T T T
  0.5018830118384230  0.5623875887565077  0.3870763294896591 T T T
  0.5461701184105223  0.9968935873950144  0.3858665402351562 T T T
  0.0003443888067522  0.0002443434801762  0.3796021398724179 T T T
  0.5026695428336652  0.6631996042499892  0.4235744054252777 T T T
  0.6398119952439743  0.9973539415101698  0.4273267980643425 T T T
  0.4524645983016882  0.9896032541336623  0.4288803573367872 T T T
  0.0013071194740633  0.4595072876827828  0.4300512240640018 T T T
  0.0010417196233661  0.6430435671715315  0.4279948704801768 T T T
  0.4900797903427758  0.3762604908101821  0.5278456517963832 T T T
  0.5049178511645991  0.4803191575575454  0.4340621108922136 T T T
  0.3964654906268379  0.3531819333568222  0.5315972687501400 T T T
  0.5077160121300750  0.1660347077920932  0.5712131401375302 T T T
  0.4314033276998543  0.1100679857154958  0.5964496793583507 T T T
  0.5079368351325755  0.1088815398164300  0.5389788152848283 T T T
  0.4932681047586627  0.2973098984234923  0.5419981628636705 T T T
  0.2314191220776678  0.3136494616489216  0.5392773103882007 T T T
  0.2178815275511568  0.3825164682327085  0.5219921932744924 T T T
  0.1747189683084827  0.2349263357334408  0.5156108588590413 T T T
  0.6600602843012808  0.5860865916243583  0.5969528133924058 T T T
  0.7250599808191893  0.6481741537544821  0.5684094200100205 T T T
  0.5976620140654134  0.5101748869142213  0.5710460109550084 T T T
  0.4172589681920940  0.2717595750803454  0.3615497772855960 T T T
