Ni  P  O  H  O  H  O  H  O  H 
 1.0000000000000000
    11.7365814896694367    0.0000000000000000    0.0000000000000000
    -5.8682907448347157   10.1641777236399449    0.0000000000000000
     0.0000000000000000    0.0000000000000000   21.8470000000000013
 Ni  P   O   H   O   H   O   H   O   H  
  60  32   1   1   1   3   1   2   1   2
Selective dynamics
Cartesian
  2.3412774936450105  0.0000000000000000  1.7398272513047195   F   F   F
  3.7080812400946717  3.7349016048468249  6.6218353457914398   T   T   T
  8.2095682384797311  0.0000000000000000  1.7398272513047195   F   F   F
  3.7093173195570532  6.4289005167356610  6.6121545026248221   T   T   T
  4.7035753461471383  8.1439711556237508  5.0287702214300545   T   T   T
  1.7635901557448117  7.1010469405778931  5.0310260616276574   T   T   T
  7.2499960060871960  5.0820888618199733  0.1387334225070236   F   F   F
  3.7103654279998115  6.4265414359427160  0.1387334225070236   F   F   F
  0.7762200555824956  8.8197251495171383  0.1387334225070236   F   F   F
  1.7635066255951191  7.1096946486253136  1.7398272513047195   F   F   F
  4.6976519980122164  8.1365719368346081  1.7398272513047195   F   F   F
  1.3790649749314545  5.0821728304534828  6.6166051298167146   T   T   T
 -0.6004310245864677  5.0792621432458720  5.0301788043295277   T   T   T
 -1.1706387468225041  8.1365719368346081  1.7398272513047195   F   F   F
 -4.1047841192396879  7.1096946486253136  1.7398272513047195   F   F   F
 10.2145097619753784  0.0000000000000000  3.3837512821226419   F   F   F
  6.6293266086817493  1.3181527825651267  3.3837512821226419   F   F   F
  3.6951812362644314  3.7639360792547754  3.3837512821226419   F   F   F
  0.7758533788915086  8.8211342360462659  6.6152881632522957   T   T   T
  7.2803643895580343  5.0820888618199733  3.3837512821226419   F   F   F
  3.6951812362643919  6.4002416443851002  3.3837512821226419   F   F   F
  0.7610358638472952  8.8460249410748251  3.3837512821226419   F   F   F
 10.1848750925170908  0.0005692616149284  6.6131730955479373   T   T   T
  8.2010955864228290  0.0018147177077904  5.0297762045485568   T   T   T
 -5.0920706892522265  8.8197251495171383  0.1387334225070236   F   F   F
  7.6317973704295747  3.0544830750146330  1.7398272513047195   F   F   F
  3.7103654279998199  3.7376362876972324  0.1387334225070236   F   F   F
  6.6445108004172520  1.3444525741227416  0.1387334225070236   F   F   F
 10.1841413785045365  0.0000000000000000  0.1387334225070236   F   F   F
  4.6982983777442096  2.0210309487713505  5.0335391719750495   T   T   T
  7.6352866795673888  3.0597665406086159  5.0319354135151784   T   T   T
  6.6449872980993803  1.3430459903231518  6.6193034269286102   T   T   T
  4.6976519980122156  2.0276057868053403  1.7398272513047195   F   F   F
 -2.1579253168349077  6.4265414359427160  0.1387334225070236   F   F   F
  1.3817052612525511  5.0820888618199733  0.1387334225070236   F   F   F
  4.3462190171405748  0.0000000000000000  3.3837512821226419   F   F   F
  0.7610358638471135  1.3181527825651267  3.3837512821226419   F   F   F
 -2.1731095085702878  3.7639360792547754  3.3837512821226419   F   F   F
  5.2754228660623816  5.0820888618199733  1.7398272513047195   F   F   F
  0.7774211430138305  1.3411027513280431  6.6244151892711836   T   T   T
  4.3201070655796183  0.0019870160155814  6.6213413475546146   T   T   T
  2.3357990185406061  0.0049279993221176  5.0331962986833858   T   T   T
  1.7635066255948606  3.0544830750146330  1.7398272513047195   F   F   F
 -1.1706387468225041  2.0276057868053403  1.7398272513047195   F   F   F
 -2.1579253168349046  3.7376362876972324  0.1387334225070236   F   F   F
  0.7762200555824502  1.3444525741227416  0.1387334225070236   F   F   F
  4.3158506336698181  0.0000000000000000  0.1387334225070236   F   F   F
 -1.1583672876036226  2.0238624287100930  5.0314405959960444   T   T   T
 -2.1564922361468533  3.7363897477139894  6.6153375413901339   T   T   T
  7.6331463174829137  7.1013547746547463  5.0296482454214706   T   T   T
 -1.1715494650520313  8.1492381563614469  5.0303845811352508   T   T   T
 -2.1578061857555242  6.4297104831874501  6.6104089627156810   T   T   T
 -5.1072548809875133  8.8460249410748251  3.3837512821226419   F   F   F
 -2.1731095085703269  6.4002416443851002  3.3837512821226419   F   F   F
  1.4120736447232252  5.0820888618199733  3.3837512821226419   F   F   F
 -5.0897246321708076  8.8188466683165263  6.6138739281117660   T   T   T
 -0.5928678787723409  5.0820888618199733  1.7398272513047195   F   F   F
  5.2654686473534351  5.0794245558165567  5.0306208447443641   T   T   T
  7.2479050665822289  5.0810916238435579  6.6136259091815814   T   T   T
  1.7660072202536838  3.0599151919367586  5.0343532111918492   T   T   T
  5.8682907741762556  6.7761184654863440  0.0000000000000000   F   F   F
  2.9341453430759361  8.4701481199735724  0.0000000000000000   F   F   F
  5.8682907741762556  6.7761184654863440  3.3837512821226419   F   F   F
  2.9329279349906341  5.0792023927231496  5.0908442283850084   T   T   T
  5.8670933389304416  6.7760547943980836  6.7385149208752573   T   T   T
  2.9334829756937326  8.4723734272646549  6.7429610226067078   T   T   T
  2.9341453724173707  5.0820888618199733  1.6619386264096183   F   F   F
  5.8682907448347184  0.0000000000000000  1.6619386264096183   F   F   F
  0.0015193201481312  3.3849065527148570  6.7489262125950429   T   T   T
  2.9336102269101656  1.6872485484955568  6.7486350794779639   T   T   T
  0.0032167629379390  0.0015899531016165  5.0896114640661567   T   T   T
  2.9341454017587973  1.6940296036663725  3.3837512821226419   F   F   F
 -0.0000000293414341  3.3880592581536009  0.0000000000000000   F   F   F
  2.9341454017587973  1.6940296036663725  0.0000000000000000   F   F   F
  0.0000000000000000  0.0000000000000000  1.6619386264096183   F   F   F
 -0.0000000293414341  3.3880592581536009  3.3837512821226419   F   F   F
 -2.9310931595001262  8.4748959166961750  6.7471725009892696   T   T   T
 -0.0006479970462807  6.7782494872340910  6.7405894630661836   T   T   T
  5.8682907154932860  3.3880592581536009  3.3837512821226419   F   F   F
  8.8024609268862211  5.0806838018506308  5.0892075135906856   T   T   T
 -2.9341454017587916  8.4701481199735724  0.0000000000000000   F   F   F
  0.0000000293415290  6.7761184654863440  0.0000000000000000   F   F   F
 -2.9341453724173538  5.0820888618199733  1.6619386264096183   F   F   F
 -2.9341454017587916  8.4701481199735724  3.3837512821226419   F   F   F
  2.9341453430759361  8.4701481199735724  3.3837512821226419   F   F   F
  5.8694594715655528  3.3854597689917125  6.7409807339776462   T   T   T
  8.8033097230054427  1.6931856427492218  6.7442248140299936   T   T   T
  5.8678877434281969  0.0019385597304939  5.0891653684746725   T   T   T
  8.8024361465935126  1.6940296036663725  3.3837512821226419   F   F   F
  5.8682907154932860  3.3880592581536009  0.0000000000000000   F   F   F
  8.8024361465935126  1.6940296036663725  0.0000000000000000   F   F   F
  0.0000000293415290  6.7761184654863440  3.3837512821226419   F   F   F
  3.2219992504779476  4.4237724508650036  8.4711885647548648   T   T   T
  2.2619619607595216  4.2001500957138491  8.5938141338602172   T   T   T
  4.6069238445412175  2.1267715146317108  9.1227404624490678   T   T   T
 -1.7747900144872493 11.7847665241918609  9.7784352696811307   T   T   T
 -1.0586131465588560 11.6576507701218741  8.4115828866160722   T   T   T
  3.7114374320836179  3.5797146935202782  8.6586140629020267   T   T   T
  0.5733483886231701  3.8252376390897727  8.9580609817195498   T   T   T
 -0.0695673735239881  4.4673451395124504  8.6077443789527148   T   T   T
  0.2784313906788874  2.9545874025763674  8.6362602335728980   T   T   T
  3.9640031427561353  6.4540492677089505 10.1257192528960509   T   T   T
  4.2540734997352487  7.1865194681914009  9.5560654008368591   T   T   T
  3.7024404428045061  5.7216206775985974  9.4993262355359320   T   T   T
