Ni   P    H    O    H    O    H    O    H    O    H 
   1.00000000000000     
  11.7365814896693994   0.0000000000000000   0.0000000000000000
  -5.8682907448347201  10.1641777236399005   0.0000000000000000
   0.0000000000000000   0.0000000000000000  21.8470000000000013
Ni   P    H    O    H    O    H    O    H    O    H 
60  36  5  1  2  1  3  1  2  1  4  
Selective dynamics
Direct
  0.1994854716175922  0.0000000000000000  0.0796368952856099 F F F
  0.4976805550205086  0.3697219200859578  0.3033348339940360 T T T
  0.6994854716175922  0.0000000000000000  0.0796368952856099 F F F
  0.6323653262639226  0.6305278841433761  0.3071621440050123 T T T
  0.8014228262595324  0.8011353054999688  0.2315196033105735 T T T
  0.4986019312618666  0.6981998250165162  0.2318802591671840 T T T
  0.8677263807581994  0.5000000000000000  0.0063502276059424 F F F
  0.6322736192418006  0.6322736192418006  0.0063502276059424 F F F
  0.5000000000000000  0.8677263807581923  0.0063502276059424 F F F
  0.5000000000000924  0.6994854716175922  0.0796368952856099 F F F
  0.8005145283824078  0.8005145283824078  0.0796368952856099 F F F
  0.3660681404771040  0.4964712314265896  0.3078643954326665 T T T
  0.2018325117582549  0.5041001340640605  0.2317915702934954 T T T
  0.3005145283824078  0.8005145283824078  0.0796368952856099 F F F
  0.0000000000000711  0.6994854716175922  0.0796368952856099 F F F
  0.8703138789575320  0.0000000000000000  0.1548840244483287 F F F
  0.6296861210424680  0.1296861210424680  0.1548840244483287 F F F
  0.5000000000000000  0.3703138789575249  0.1548840244483287 F F F
  0.4988550204411695  0.8664747119324474  0.3075998779460676 T T T
  0.8703138789575320  0.5000000000000000  0.1548840244483287 F F F
  0.6296861210424680  0.6296861210424680  0.1548840244483287 F F F
  0.5000000000000924  0.8703138789575320  0.1548840244483287 F F F
  0.8693630290951759  0.0010001972902884  0.3069830540168397 T T T
  0.7006958810194988  0.0030136614949825  0.2313668061247256 T T T
  0.0000000000000000  0.8677263807581923  0.0063502276059424 F F F
  0.8005145283824078  0.3005145283824078  0.0796368952856099 F F F
  0.5000000000000000  0.3677263807581994  0.0063502276059424 F F F
  0.6322736192418077  0.1322736192418006  0.0063502276059424 F F F
  0.8677263807581994  0.0000000000000000  0.0063502276059424 F F F
  0.5050304500581930  0.1996708698955487  0.2303518196667085 T T T
  0.7957854745578459  0.3033484389836190  0.2322082818794797 T T T
  0.6316994800987530  0.1332376869300234  0.3079142413108968 T T T
  0.5000000000000000  0.1994854716175922  0.0796368952856099 F F F
  0.1322736192418006  0.6322736192418006  0.0063502276059424 F F F
  0.3677263807582563  0.5000000000000000  0.0063502276059424 F F F
  0.3703138789575249  0.0000000000000000  0.1548840244483287 F F F
  0.1296861210424751  0.1296861210424680  0.1548840244483287 F F F
  0.0000000000000000  0.3703138789575249  0.1548840244483287 F F F
  0.6994854716175922  0.5000000000000000  0.0796368952856099 F F F
  0.1312802138765221  0.1304681889625599  0.3070633687183317 T T T
  0.3721562317956639  0.0014142257599374  0.3031221021653536 T T T
  0.1974922646294388  0.0022683342274306  0.2299919933085377 T T T
  0.3005145283824078  0.3005145283824078  0.0796368952856099 F F F
  0.0000000000000000  0.1994854716175922  0.0796368952856099 F F F
  0.0000000000000284  0.3677263807581994  0.0063502276059424 F F F
  0.1322736192418006  0.1322736192418006  0.0063502276059424 F F F
  0.3677263807581994  0.0000000000000000  0.0063502276059424 F F F
  0.0013220978693482  0.1961253811434531  0.2299250810996583 T T T
  0.0001374359164714  0.3708828105432147  0.3023049056384224 T T T
  0.0021327581719461  0.7007107311472609  0.2314840228548078 T T T
  0.3011050422912760  0.7991583597765128  0.2318180310415272 T T T
  0.1322027918086590  0.6319692843109550  0.3078500526961321 T T T
  0.0000000000000711  0.8703138789575320  0.1548840244483287 F F F
  0.1296861210424680  0.6296861210424680  0.1548840244483287 F F F
  0.3703138789575817  0.5000000000000000  0.1548840244483287 F F F
  0.0009693777267756  0.8693592892807658  0.3071807465031995 T T T
  0.1994854716176206  0.5000000000000000  0.0796368952856099 F F F
  0.7007112061824259  0.5010379720500282  0.2320511303477417 T T T
  0.8672640557665190  0.4984985391536725  0.3085110693634192 T T T
  0.2975854212351976  0.3011871476191246  0.2311890972988166 T T T
  0.8333333350000061  0.6666666650000010  0.0000000000000000 F F F
  0.6666666650000010  0.8333333349999990  0.0000000000000000 F F F
  0.8333333350000061  0.6666666650000010  0.1548840244483287 F F F
  0.4989552052799766  0.4996379686101378  0.2318552307069197 T T T
  0.8344682540176933  0.6675442893323549  0.3079714898365324 T T T
  0.6683653600559865  0.8340391629580139  0.3063348994931374 T T T
  0.5000000000000000  0.5000000000000000  0.0760717089948102 F F F
  0.5000000000000000  0.0000000000000000  0.0760717089948102 F F F
  0.1621537067973762  0.3310983589478838  0.3102412078626031 T T T
  0.3350972429280148  0.1662930733099230  0.3099671677694218 T T T
  0.0006869407853074  0.0003159860259530  0.2321625047443590 T T T
  0.3333333349999990  0.1666666650000010  0.1548840244483287 F F F
  0.1666666650000010  0.3333333349999990  0.0000000000000000 F F F
  0.3333333349999990  0.1666666650000010  0.0000000000000000 F F F
  0.0000000000000000  0.0000000000000000  0.0760717089948102 F F F
  0.1666666650000010  0.3333333349999990  0.1548840244483287 F F F
  0.1709380370855413  0.8381430545901907  0.3085464151532804 T T T
  0.3321995298286708  0.6650419153659755  0.3080351771648111 T T T
  0.6666666650000010  0.3333333349999990  0.1548840244483287 F F F
  0.9994124112422895  0.5014424453858695  0.2320417894129108 T T T
  0.1666666650000010  0.8333333349999990  0.0000000000000000 F F F
  0.3333333350000558  0.6666666650000010  0.0000000000000000 F F F
  0.0000000000000284  0.5000000000000000  0.0760717089948102 F F F
  0.1666666650000010  0.8333333349999990  0.1548840244483287 F F F
  0.6666666650000010  0.8333333349999990  0.1548840244483287 F F F
  0.6625427107198121  0.3339462719615511  0.3105355202746338 T T T
  0.8369585031897060  0.1705291788820276  0.3082002951871701 T T T
  0.5015075766826627  0.0008099339201806  0.2320149529548630 T T T
  0.8333333349999990  0.1666666650000010  0.1548840244483287 F F F
  0.6666666650000010  0.3333333349999990  0.0000000000000000 F F F
  0.8333333349999990  0.1666666650000010  0.0000000000000000 F F F
  0.3333333350000558  0.6666666650000010  0.1548840244483287 F F F
  0.0008855588088110  0.5490740607536466  0.3865400873929516 T T T
  0.5000371090571747  0.5441656253266984  0.3855520572193782 T T T
  0.5446632187736142  0.0002899298841257  0.3857974369507673 T T T
  0.0010881426272178  0.0014981904301195  0.3794283758839185 T T T
  0.5004712603779637  0.6379666197629419  0.4269072179732660 T T T
  0.6367278385749557  0.9993224499054634  0.4277844743071881 T T T
  0.4531227662708304  0.9992262084518302  0.4284679053125728 T T T
  0.0024018553147442  0.4597792399405165  0.4297373845748922 T T T
  0.0012631310802362  0.6429768053937224  0.4277290934178311 T T T
  0.3998837039699339  0.2426126033695368  0.5068980709041000 T T T
  0.4991828720680971  0.4538047968264749  0.4289278661732467 T T T
  0.3037970773358225  0.2087048755949397  0.5092613804068193 T T T
  0.4238825573396738  0.0499936269830528  0.5695809808860730 T T T
  0.3344432001051061  0.9804362603848773  0.5785533846302968 T T T
  0.4656240701294081  0.0061077536157939  0.5496027265048866 T T T
  0.4121166629488187  0.1738282956708872  0.5272180080887807 T T T
  0.1276808201177744  0.1265401365886518  0.5199808160717581 T T T
  0.0970632814513621  0.1875179495116512  0.5304858680569353 T T T
  0.0837660736792643  0.0864729729186777  0.4810162391705930 T T T
  0.5581106746387690  0.4827792070408634  0.5587188088876260 T T T
  0.6406132500676662  0.5198068770621447  0.5362803275913208 T T T
  0.5002703130241599  0.3953186199208005  0.5393265896095727 T T T
  0.2397620237819922  0.4337257675860400  0.4866174058164745 T T T
  0.2248397369122017  0.4099924168810816  0.4540983738783879 T T T
