Ni  P   H   O   H   O   H   O   H   O   H  
   1.00000000000000     
  11.7365814896693994   0.0000000000000000   0.0000000000000000
  -5.8682907448347201  10.1641777236399005   0.0000000000000000
   0.0000000000000000   0.0000000000000000  21.8470000000000013
Ni  P   H   O   H   O   H   O   H   O   H  
60  36  5  1  2  1  3  1  2  1  4  
Selective dynamics
Direct
  0.1994854716175922  0.0000000000000000  0.0796368952856099 F F F
  0.5016467408256418  0.3717238384070995  0.3040339084116965 T T T
  0.6994854716175922  0.0000000000000000  0.0796368952856099 F F F
  0.6332088894732308  0.6329546255439169  0.3080664029286311 T T T
  0.8018670664780103  0.8018315418398103  0.2321434274323124 T T T
  0.4989944001647189  0.6990336502399330  0.2318700158390072 T T T
  0.8677263807581994  0.5000000000000000  0.0063502276059424 F F F
  0.6322736192418006  0.6322736192418006  0.0063502276059424 F F F
  0.5000000000000000  0.8677263807581923  0.0063502276059424 F F F
  0.5000000000001066  0.6994854716175922  0.0796368952856099 F F F
  0.8005145283824078  0.8005145283824078  0.0796368952856099 F F F
  0.3671373600711760  0.4987749772517773  0.3089641273288066 T T T
  0.2026494432413131  0.5047053994218089  0.2319791049639619 T T T
  0.3005145283824078  0.8005145283824078  0.0796368952856099 F F F
  0.0000000000000853  0.6994854716175922  0.0796368952856099 F F F
  0.8703138789575320  0.0000000000000000  0.1548840244483287 F F F
  0.6296861210424680  0.1296861210424680  0.1548840244483287 F F F
  0.5000000000000000  0.3703138789575249  0.1548840244483287 F F F
  0.4998701539716635  0.8673878423945993  0.3075437720248928 T T T
  0.8703138789575320  0.5000000000000000  0.1548840244483287 F F F
  0.6296861210424680  0.6296861210424680  0.1548840244483287 F F F
  0.5000000000001066  0.8703138789575320  0.1548840244483287 F F F
  0.8714751296144740  0.0029844707174149  0.3085183023121232 T T T
  0.7022190405043034  0.0050412236038540  0.2322719826323691 T T T
  0.0000000000000000  0.8677263807581923  0.0063502276059424 F F F
  0.8005145283824078  0.3005145283824078  0.0796368952856099 F F F
  0.5000000000000000  0.3677263807581994  0.0063502276059424 F F F
  0.6322736192418077  0.1322736192418006  0.0063502276059424 F F F
  0.8677263807581994  0.0000000000000000  0.0063502276059424 F F F
  0.5066117509729153  0.2012732429297586  0.2312617481990031 T T T
  0.7972923124591986  0.3026326582935113  0.2324309522705050 T T T
  0.6314958543778388  0.1336249443065967  0.3094003300183772 T T T
  0.5000000000000000  0.1994854716175922  0.0796368952856099 F F F
  0.1322736192418006  0.6322736192418006  0.0063502276059424 F F F
  0.3677263807582634  0.5000000000000000  0.0063502276059424 F F F
  0.3703138789575249  0.0000000000000000  0.1548840244483287 F F F
  0.1296861210424751  0.1296861210424680  0.1548840244483287 F F F
  0.0000000000000000  0.3703138789575249  0.1548840244483287 F F F
  0.6994854716175922  0.5000000000000000  0.0796368952856099 F F F
  0.1328950761423116  0.1316756928191793  0.3060679089734890 T T T
  0.3727441224685535  0.0028981447142655  0.3026556354844061 T T T
  0.1910669554699282  0.9911807536808439  0.2285734535573809 T T T
  0.3005145283824078  0.3005145283824078  0.0796368952856099 F F F
  0.0000000000000000  0.1994854716175922  0.0796368952856099 F F F
  0.0000000000000355  0.3677263807581994  0.0063502276059424 F F F
  0.1322736192418006  0.1322736192418006  0.0063502276059424 F F F
  0.3677263807581994  0.0000000000000000  0.0063502276059424 F F F
  0.0009126937558221  0.1959014058363451  0.2298510159539191 T T T
  0.0011780812597166  0.3715553146883011  0.3023300673411029 T T T
  0.0014686145808867  0.7008001450196062  0.2322888759240129 T T T
  0.3013375645078327  0.8003897973927678  0.2321271311359041 T T T
  0.1326850678243048  0.6322312992994270  0.3083564324101999 T T T
  0.0000000000000853  0.8703138789575320  0.1548840244483287 F F F
  0.1296861210424680  0.6296861210424680  0.1548840244483287 F F F
  0.3703138789575888  0.5000000000000000  0.1548840244483287 F F F
  0.0015837656771538  0.8698840980554792  0.3087669913323552 T T T
  0.1994854716176278  0.5000000000000000  0.0796368952856099 F F F
  0.7009723499060314  0.5029038867916924  0.2325390826067562 T T T
  0.8695496330573178  0.4998042258111113  0.3084686813523092 T T T
  0.2997138222189122  0.3031603566859076  0.2321458343568708 T T T
  0.8333333350000061  0.6666666650000010  0.0000000000000000 F F F
  0.6666666650000010  0.8333333349999990  0.0000000000000000 F F F
  0.8333333350000061  0.6666666650000010  0.1548840244483287 F F F
  0.4996738336179973  0.5011975192598470  0.2324354287177712 T T T
  0.8353278246865941  0.6682424578225934  0.3081817225718950 T T T
  0.6704799939088488  0.8369697050799729  0.3052490442264713 T T T
  0.5000000000000000  0.5000000000000000  0.0760717089948102 F F F
  0.5000000000000000  0.0000000000000000  0.0760717089948102 F F F
  0.1630908613569488  0.3316695666062941  0.3092964585411337 T T T
  0.3346965752612974  0.1657983479766045  0.3095348662932622 T T T
  0.0000533567486940  0.9994196735860967  0.2322855747885058 T T T
  0.3333333349999990  0.1666666650000010  0.1548840244483287 F F F
  0.1666666650000010  0.3333333349999990  0.0000000000000000 F F F
  0.3333333349999990  0.1666666650000010  0.0000000000000000 F F F
  0.0000000000000000  0.0000000000000000  0.0760717089948102 F F F
  0.1666666650000010  0.3333333349999990  0.1548840244483287 F F F
  0.1716177698948442  0.8385379964032111  0.3086103775123732 T T T
  0.3326085977241533  0.6666664137204492  0.3068908084001976 T T T
  0.6666666650000010  0.3333333349999990  0.1548840244483287 F F F
  0.0003775568234730  0.5020526032087034  0.2319526355720996 T T T
  0.1666666650000010  0.8333333349999990  0.0000000000000000 F F F
  0.3333333350000629  0.6666666650000010  0.0000000000000000 F F F
  0.0000000000000355  0.5000000000000000  0.0760717089948102 F F F
  0.1666666650000010  0.8333333349999990  0.1548840244483287 F F F
  0.6666666650000010  0.8333333349999990  0.1548840244483287 F F F
  0.6670090438409773  0.3357244910417450  0.3082036751960899 T T T
  0.8376028368043436  0.1717202898959300  0.3091855247552004 T T T
  0.5024492988499389  0.0013225920696485  0.2320417278689391 T T T
  0.8333333349999990  0.1666666650000010  0.1548840244483287 F F F
  0.6666666650000010  0.3333333349999990  0.0000000000000000 F F F
  0.8333333349999990  0.1666666650000010  0.0000000000000000 F F F
  0.3333333350000629  0.6666666650000010  0.1548840244483287 F F F
  0.0014189211805231  0.5475038741005704  0.3867964338781107 T T T
  0.5013711515594750  0.5642255533436327  0.3869058599800752 T T T
  0.5458087426361189  0.9980463103883181  0.3863477510655997 T T T
  0.0060357221451284  0.0051451158950968  0.3803616314479186 T T T
  0.5024616089396190  0.6645131618402402  0.4242869959278650 T T T
  0.6398650299453408  0.9983505413008871  0.4278984169887750 T T T
  0.4556179378397189  0.9926968747970193  0.4312978926041922 T T T
  0.0018401317483878  0.4591735909034753  0.4311687320448954 T T T
  0.0013022826520555  0.6407280114445726  0.4286940839357030 T T T
  0.3825741506874607  0.2329145498477416  0.5127292767553087 T T T
  0.5040537510007468  0.4839940408210026  0.4348814847066009 T T T
  0.2608277413388791  0.2031419209964298  0.5003899483219172 T T T
  0.3858613668488573  0.0530420398651472  0.5795915357419830 T T T
  0.3148538360667672  0.9673032285599206  0.5663268688542757 T T T
  0.4672135013966852  0.0524100007158026  0.5711882084357072 T T T
  0.3830496037989590  0.1605931713627129  0.5393359900606072 T T T
  0.1555923165628670  0.1802561495851975  0.4944065804202324 T T T
  0.1537702987471405  0.2616133623549857  0.4861722400830857 T T T
  0.1074574304406255  0.1163411006389339  0.4589693679645706 T T T
  0.5725622399298231  0.4837191843965627  0.5716687053717919 T T T
  0.6396667616093552  0.5330436723014884  0.5409853609212192 T T T
  0.5087292942761721  0.4025549889291824  0.5507532135237767 T T T
  0.4300155116679321  0.2364276829010379  0.4753510372913823 T T T
  0.4174157536647556  0.2744022060459841  0.3601622208204276 T T T
