Ni  P  O  H  O  H  O  H  O  H 
 1.0000000000000000
    11.7365814896694367    0.0000000000000000    0.0000000000000000
    -5.8682907448347157   10.1641777236399449    0.0000000000000000
     0.0000000000000000    0.0000000000000000   21.8470000000000013
 Ni  P   O   H   O   H   O   H   O   H  
  60  32   1   1   1   3   1   2   1   2
Selective dynamics
Cartesian
  2.3412774936450105  0.0000000000000000  1.7398272513047195   F   F   F
  3.7072519054166362  3.7342155378591202  6.6141710189526375   T   T   T
  8.2095682384797311  0.0000000000000000  1.7398272513047195   F   F   F
  3.7077548518401997  6.4255564391481093  6.6135624750037838   T   T   T
  4.7007847067978581  8.1444356361348760  5.0314854123600252   T   T   T
  1.7650468184085588  7.1000040610763886  5.0290422207468577   T   T   T
  7.2499960060871871  5.0820888618199733  0.1387334225070236   F   F   F
  3.7103654279998115  6.4265414359427160  0.1387334225070236   F   F   F
  0.7762200555824956  8.8197251495171383  0.1387334225070236   F   F   F
  1.7635066255960268  7.1096946486253136  1.7398272513047195   F   F   F
  4.6976519980122164  8.1365719368346081  1.7398272513047195   F   F   F
  1.3790728438130846  5.0810679371642493  6.6132242104003280   T   T   T
 -0.6027281475137437  5.0856903166159544  5.0302913256043889   T   T   T
 -1.1706387468225041  8.1365719368346081  1.7398272513047195   F   F   F
 -4.1047841192391941  7.1096946486253136  1.7398272513047195   F   F   F
 10.2145097619753784  0.0000000000000000  3.3837512821226419   F   F   F
  6.6293266086817493  1.3181527825651267  3.3837512821226419   F   F   F
  3.6951812362644314  3.7639360792547754  3.3837512821226419   F   F   F
  0.7786310137062862  8.8182018386795793  6.6111009641508112   T   T   T
  7.2803643895580255  5.0820888618199733  3.3837512821226419   F   F   F
  3.6951812362643919  6.4002416443851002  3.3837512821226419   F   F   F
  0.7610358638482020  8.8460249410748251  3.3837512821226419   F   F   F
  4.3188287616960102 10.1629379990018407  6.6179417787189267   T   T   T
  2.3347612062062004 10.1636745474756722  5.0310467560325520   T   T   T
 -5.0920706892522265  8.8197251495171383  0.1387334225070236   F   F   F
  7.6317973704295747  3.0544830750146330  1.7398272513047195   F   F   F
  3.7103654279998146  3.7376362876972324  0.1387334225070236   F   F   F
  6.6445108004172520  1.3444525741227416  0.1387334225070236   F   F   F
 10.1841413785045365  0.0000000000000000  0.1387334225070236   F   F   F
  4.7046867936077286  2.0199219652438987  5.0290129243821839   T   T   T
  7.6353912655945697  3.0641633188084256  5.0304003463900946   T   T   T
  6.6475793846298821  1.3455188930884090  6.6115459255778521   T   T   T
  4.6976519980122156  2.0276057868053403  1.7398272513047195   F   F   F
 -2.1579253168349077  6.4265414359427160  0.1387334225070236   F   F   F
  1.3817052612529641  5.0820888618199733  0.1387334225070236   F   F   F
  4.3462190171405748  0.0000000000000000  3.3837512821226419   F   F   F
  0.7610358638471135  1.3181527825651267  3.3837512821226419   F   F   F
 -2.1731095085702878  3.7639360792547754  3.3837512821226419   F   F   F
  5.2754228660623781  5.0820888618199733  1.7398272513047195   F   F   F
  0.7751369330112881  1.3422786224592489  6.6165156264295462   T   T   T
 -1.5522623684181445 10.1639382768516686  6.6126558833791940   T   T   T
  2.3326226479145449  0.0005845846444374  5.0295738818046862   T   T   T
  1.7635066255948584  3.0544830750146330  1.7398272513047195   F   F   F
 -1.1706387468225041  2.0276057868053403  1.7398272513047195   F   F   F
 -2.1579253168344903  3.7376362876972324  0.1387334225070236   F   F   F
  0.7762200555824502  1.3444525741227416  0.1387334225070236   F   F   F
  4.3158506336698181  0.0000000000000000  0.1387334225070236   F   F   F
 10.5700417396043367  2.0184771232321914  5.0294876679272598   T   T   T
 -2.1563303136086449  3.7367777518021623  6.6114560942169156   T   T   T
 -4.0985360400963797  7.1053525770841626  5.0326746343749527   T   T   T
 -1.1658394058714370  8.1435914805849912  5.0311655929218704   T   T   T
 -2.1593498009448648  6.4281196502840778  6.6165476516574726   T   T   T
 -5.1072548809870195  8.8460249410748251  3.3837512821226419   F   F   F
 -2.1731095085703269  6.4002416443851002  3.3837512821226419   F   F   F
  1.4120736447236364  5.0820888618199733  3.3837512821226419   F   F   F
 -5.0918694486701259  8.8236416104571198  6.6169783289351143   T   T   T
 -0.5928678787719279  5.0820888618199733  1.7398272513047195   F   F   F
  5.2651689938853909  5.0767683456788779  5.0303136928497478   T   T   T
  7.2451212246692167  5.0825331788616426  6.6142197058439889   T   T   T
  1.7664580549779529  3.0609536678587776  5.0307152505315624   T   T   T
  5.8682907741762467  6.7761184654863440  0.0000000000000000   F   F   F
  2.9341453430759334  8.4701481199735724  0.0000000000000000   F   F   F
  5.8682907741762467  6.7761184654863440  3.3837512821226419   F   F   F
  2.9324688791201279  5.0813702282439142  5.0888655747017166   T   T   T
  5.8644175807805663  6.7823239625668981  6.7317654438648677   T   T   T
  2.9363659192496248  8.4700878986604664  6.7425995652137436   T   T   T
  2.9341453724173663  5.0820888618199733  1.6619386264096183   F   F   F
  5.8682907448347184  0.0000000000000000  1.6619386264096183   F   F   F
  0.0002154411806462  3.3849962752751583  6.7388224214553940   T   T   T
  2.9317580415452889  1.6902857185508517  6.7393179855109642   T   T   T
  5.8684154357983616 10.1638757812562623  5.0886150244092967   T   T   T
  2.9341454017587973  1.6940296036663725  3.3837512821226419   F   F   F
 -0.0000000293414341  3.3880592581536009  0.0000000000000000   F   F   F
  2.9341454017587973  1.6940296036663725  0.0000000000000000   F   F   F
  0.0000000000000000  0.0000000000000000  1.6619386264096183   F   F   F
 -0.0000000293414341  3.3880592581536009  3.3837512821226419   F   F   F
 -2.9349884299668916  8.4723164041672057  6.7435492901782963   T   T   T
 -0.0012326225788870  6.7764151468781888  6.7375365098391216   T   T   T
  5.8682907154932860  3.3880592581536009  3.3837512821226419   F   F   F
 -2.9352983374548285  5.0841606735526890  5.0903922598644469   T   T   T
 -2.9341454017587916  8.4701481199735724  0.0000000000000000   F   F   F
  0.0000000293419416  6.7761184654863440  0.0000000000000000   F   F   F
 -2.9341453724169395  5.0820888618199733  1.6619386264096183   F   F   F
 -2.9341454017587916  8.4701481199735724  3.3837512821226419   F   F   F
  2.9341453430759334  8.4701481199735724  3.3837512821226419   F   F   F
  5.8631552081175515  3.3849713076728407  6.7262387135139550   T   T   T
  8.8070981870162068  1.6924452468082096  6.7337912048145157   T   T   T
  0.0007560875615046 10.1634797364143736  5.0884417701977362   T   T   T
  8.8024361465935126  1.6940296036663725  3.3837512821226419   F   F   F
  5.8682907154932860  3.3880592581536009  0.0000000000000000   F   F   F
  8.8024361465935126  1.6940296036663725  0.0000000000000000   F   F   F
  0.0000000293419416  6.7761184654863440  3.3837512821226419   F   F   F
  5.9225034805112990  3.4336274326477496  8.4141821790510960   T   T   T
  5.0566788567470411  3.0007963215840161  8.5031305887893556   T   T   T
  8.2886867761963945  1.6029712458907892 10.4505512778128153   T   T   T
  8.0414984253540478  0.7209577342208432 10.1193710225076057   T   T   T
  9.1753099114981218  1.7843167189378741 10.0905609923552859   T   T   T
  6.6075129975061948  2.7203846326007364  8.5387272794640943   T   T   T
  2.6171926405088297  2.0205398096688918 10.3914852185670181   T   T   T
  1.9618557346509777  2.5991205807738313  9.9642891130583120   T   T   T
  2.4428899564615913  1.1338484755183318 10.0305271656221198   T   T   T
  6.5693812824635129  6.2352057866747765 10.3221561522390868   T   T   T
  6.2825662539107308  6.6176992984071719  9.4736260309974991   T   T   T
  6.5171133152123248  5.2509815846480077 10.1881927508453920   T   T   T
