Ni   P    H    O    H    O    H    O    H    O    H 
   1.00000000000000     
  11.7365814896693994   0.0000000000000000   0.0000000000000000
  -5.8682907448347201  10.1641777236399005   0.0000000000000000
   0.0000000000000000   0.0000000000000000  21.8470000000000013
Ni   P    H    O    H    O    H    O    H    O    H 
60  32  5  1  2  1  3  1  2  1  2  
Selective dynamics
Direct
  0.1994854716175922  0.0000000000000000  0.0796368952856099 F F F
  0.5000262920068832  0.3724042139211219  0.3052570893365943 T T T
  0.6994854716175924  0.0000000000000000  0.0796368952856099 F F F
  0.6275730985126710  0.6275331162201582  0.3052340175008986 T T T
  0.7985120400316911  0.7984636167171862  0.2307331884711961 T T T
  0.4998994446717479  0.7014343162509559  0.2307265585360474 T T T
  0.8677263807581997  0.5000000000000001  0.0063502276059424 F F F
  0.6322736192418008  0.6322736192418008  0.0063502276059424 F F F
  0.5000000000000003  0.8677263807581928  0.0063502276059424 F F F
  0.5000000000000570  0.6994854716175924  0.0796368952856099 F F F
  0.8005145283824080  0.8005145283824081  0.0796368952856099 F F F
  0.3724795780762690  0.4999584299573314  0.3053843464827663 T T T
  0.2015423280952945  0.4998814903181694  0.2307541030510929 T T T
  0.3005145283824079  0.8005145283824081  0.0796368952856099 F F F
  0.0000000000000426  0.6994854716175924  0.0796368952856099 F F F
  0.8703138789575322  0.0000000000000000  0.1548840244483288 F F F
  0.6296861210424680  0.1296861210424680  0.1548840244483288 F F F
  0.5000000000000001  0.3703138789575250  0.1548840244483288 F F F
  0.5000009578473407  0.8723858540922895  0.3051972550046521 T T T
  0.8703138789575322  0.5000000000000001  0.1548840244483288 F F F
  0.6296861210424681  0.6296861210424681  0.1548840244483288 F F F
  0.5000000000000572  0.8703138789575324  0.1548840244483288 F F F
  0.8724464198298821  0.9999892684016533  0.3053236116761991 T T T
  0.7015986514551532  0.0000425435777753  0.2307380646709418 T T T
  0.0000000000000001  0.8677263807581928  0.0063502276059424 F F F
  0.8005145283824079  0.3005145283824078  0.0796368952856099 F F F
  0.5000000000000001  0.3677263807581996  0.0063502276059424 F F F
  0.6322736192418077  0.1322736192418006  0.0063502276059424 F F F
  0.8677263807581994  0.0000000000000000  0.0063502276059424 F F F
  0.4999998955218906  0.2015244511561403  0.2307226444732804 T T T
  0.7984454502516311  0.2983853766279845  0.2307498650376806 T T T
  0.6275079439542819  0.1275023849112117  0.3053023013851940 T T T
  0.5000000000000002  0.1994854716175923  0.0796368952856099 F F F
  0.1322736192418007  0.6322736192418008  0.0063502276059424 F F F
  0.3677263807582209  0.5000000000000001  0.0063502276059424 F F F
  0.3703138789575249  0.0000000000000000  0.1548840244483288 F F F
  0.1296861210424751  0.1296861210424680  0.1548840244483288 F F F
  0.0000000000000000  0.3703138789575250  0.1548840244483288 F F F
  0.6994854716175924  0.5000000000000001  0.0796368952856099 F F F
  0.1275807304454818  0.1275984460101426  0.3052850669015995 T T T
  0.3723806920708500  0.9999225246045199  0.3051889959003929 T T T
  0.2014489360837968  0.9999195958512862  0.2306898747037898 T T T
  0.3005145283824079  0.3005145283824078  0.0796368952856099 F F F
  0.0000000000000001  0.1994854716175923  0.0796368952856099 F F F
  0.0000000000000143  0.3677263807581996  0.0063502276059424 F F F
  0.1322736192418006  0.1322736192418006  0.0063502276059424 F F F
  0.3677263807581994  0.0000000000000000  0.0063502276059424 F F F
  0.9999966076166473  0.2015251376006532  0.2307640204958870 T T T
  0.9999876139991363  0.3724214432462975  0.3052860424098680 T T T
  0.9999768115120981  0.7015903630561010  0.2307651777799760 T T T
  0.2984665973586621  0.7984085007248383  0.2307081066285751 T T T
  0.1275740971466227  0.6275275508326544  0.3052211181879670 T T T
  0.0000000000000428  0.8703138789575324  0.1548840244483288 F F F
  0.1296861210424681  0.6296861210424681  0.1548840244483288 F F F
  0.3703138789575464  0.5000000000000001  0.1548840244483288 F F F
  0.0000151882280269  0.8725110976821827  0.3053598327527048 T T T
  0.1994854716176066  0.5000000000000001  0.0796368952856099 F F F
  0.7015336406104163  0.4999857949258549  0.2307066922665818 T T T
  0.8724286860429062  0.4999824110391796  0.3052144051816001 T T T
  0.2984259558310318  0.2985111154626697  0.2307389086311449 T T T
  0.8333333350000064  0.6666666650000010  0.0000000000000000 F F F
  0.6666666650000014  0.8333333349999990  0.0000000000000000 F F F
  0.8333333350000064  0.6666666650000010  0.1548840244483288 F F F
  0.4999500725045330  0.4999833101025585  0.2314926498717723 T T T
  0.8333679609134420  0.6666971090482023  0.3089939218584560 T T T
  0.6666811239997172  0.8333063780825358  0.3089861896142826 T T T
  0.5000000000000002  0.5000000000000001  0.0760717089948102 F F F
  0.5000000000000000  0.0000000000000000  0.0760717089948102 F F F
  0.1666877963664316  0.3334166722646287  0.3089624461901248 T T T
  0.3333546225840960  0.1665867021835637  0.3088171070718615 T T T
  0.9999996690173060  0.0000092445983746  0.2315151627399841 T T T
  0.3333333349999991  0.1666666650000011  0.1548840244483288 F F F
  0.1666666650000011  0.3333333349999990  0.0000000000000000 F F F
  0.3333333349999991  0.1666666650000011  0.0000000000000000 F F F
  0.0000000000000000  0.0000000000000000  0.0760717089948102 F F F
  0.1666666650000011  0.3333333349999990  0.1548840244483288 F F F
  0.1666056301822194  0.8332866494766972  0.3089876980309836 T T T
  0.3333307255803927  0.6666086642925314  0.3090088346637229 T T T
  0.6666666650000013  0.3333333349999990  0.1548840244483288 F F F
  0.9999982885400778  0.4999540016108844  0.2314697552148186 T T T
  0.1666666650000011  0.8333333349999990  0.0000000000000000 F F F
  0.3333333350000204  0.6666666650000010  0.0000000000000000 F F F
  0.0000000000000143  0.5000000000000001  0.0760717089948102 F F F
  0.1666666650000011  0.8333333349999990  0.1548840244483288 F F F
  0.6666666650000014  0.8333333349999990  0.1548840244483288 F F F
  0.6666749725654367  0.3332995622203068  0.3090130311191213 T T T
  0.8332938789871341  0.1666393881730435  0.3090278417603490 T T T
  0.5000456750281230  0.0000084251044454  0.2314577083760939 T T T
  0.8333333349999990  0.1666666650000011  0.1548840244483288 F F F
  0.6666666650000013  0.3333333349999990  0.0000000000000000 F F F
  0.8333333349999990  0.1666666650000011  0.0000000000000000 F F F
  0.3333333350000204  0.6666666650000010  0.1548840244483288 F F F
  0.9999350052690135  0.4999502941681916  0.3500349208093518 T T T
  0.5000048828593432  0.9999959855982996  0.3500251566742907 T T T
  0.9996017998007374  0.9993515197750901  0.3501345305543478 T T T
  0.5000345984114406  0.4999316875085678  0.3501227900799790 T T T
  0.3739729860825184  0.2269202382479152  0.4603036718983078 T T T
  0.0793859931283497  0.2005342382242732  0.4995556056258504 T T T
  0.3142295677247515  0.2310452163693395  0.4689338270945930 T T T
  0.9865317222661043  0.1802913397821269  0.4994053797182636 T T T
  0.0849419810282397  0.9729719712574967  0.5229263336408708 T T T
  0.0024920222824364  0.9004422007147077  0.5382547971583538 T T T
  0.1057363408220407  0.9392242783643465  0.4864594683613252 T T T
  0.0771045224793080  0.1165000058341186  0.5085961094381237 T T T
  0.8227724516957985  0.1479358960177312  0.4989860122999574 T T T
  0.8125440895389970  0.2169465339806574  0.4795367981046055 T T T
  0.7625639420674647  0.0669132008321828  0.4776905720876736 T T T
  0.2649224906075158  0.4242955807541596  0.5550833856611793 T T T
  0.3282067669880916  0.4730599457116156  0.5230072393170492 T T T
  0.1971119686772019  0.3416665211312729  0.5349768689049482 T T T
