Ni   P    H    O    H    O    H    O    H    O    H 
   1.00000000000000     
  11.7365814896693994   0.0000000000000000   0.0000000000000000
  -5.8682907448347201  10.1641777236399005   0.0000000000000000
   0.0000000000000000   0.0000000000000000  21.8470000000000013
Ni   P    H    O    H    O    H    O    H    O    H 
60  36  6  1  2  1  3  1  2  1  3  
Selective dynamics
Direct
  0.1994854716175922  0.0000000000000000  0.0796368952856099 F F F
  0.4972880551541508  0.3692837896717904  0.3033759364715110 T T T
  0.6994854716175922  0.0000000000000000  0.0796368952856099 F F F
  0.6320225141682556  0.6304711453209464  0.3071401671325091 T T T
  0.8012079016169622  0.8010173547172741  0.2314057569849055 T T T
  0.4979601892211889  0.6976999175389906  0.2319222765446085 T T T
  0.8677263807581994  0.5000000000000000  0.0063502276059424 F F F
  0.6322736192418006  0.6322736192418006  0.0063502276059424 F F F
  0.5000000000000000  0.8677263807581923  0.0063502276059424 F F F
  0.5000000000000711  0.6994854716175922  0.0796368952856099 F F F
  0.8005145283824078  0.8005145283824078  0.0796368952856099 F F F
  0.3657654361729854  0.4959724701345749  0.3083410668692608 T T T
  0.2017721842144482  0.5037053699393752  0.2319465226577009 T T T
  0.3005145283824078  0.8005145283824078  0.0796368952856099 F F F
  0.0000000000000355  0.6994854716175922  0.0796368952856099 F F F
  0.8703138789575320  0.0000000000000000  0.1548840244483287 F F F
  0.6296861210424680  0.1296861210424680  0.1548840244483287 F F F
  0.5000000000000000  0.3703138789575249  0.1548840244483287 F F F
  0.4987067121658129  0.8662402627887360  0.3075293207095626 T T T
  0.8703138789575320  0.5000000000000000  0.1548840244483287 F F F
  0.6296861210424680  0.6296861210424680  0.1548840244483287 F F F
  0.5000000000000711  0.8703138789575320  0.1548840244483287 F F F
  0.8692763258102048  0.0006600765965032  0.3065961877262495 T T T
  0.7004928788806950  0.0030280629205421  0.2311932012083844 T T T
  0.0000000000000000  0.8677263807581923  0.0063502276059424 F F F
  0.8005145283824078  0.3005145283824078  0.0796368952856099 F F F
  0.5000000000000000  0.3677263807581994  0.0063502276059424 F F F
  0.6322736192418077  0.1322736192418006  0.0063502276059424 F F F
  0.8677263807581994  0.0000000000000000  0.0063502276059424 F F F
  0.5048228786719875  0.1994856204343378  0.2303565586202936 T T T
  0.7958763650083398  0.3030280741888447  0.2321782340233014 T T T
  0.6315451029949273  0.1329992510526736  0.3079258826889628 T T T
  0.5000000000000000  0.1994854716175922  0.0796368952856099 F F F
  0.1322736192418006  0.6322736192418006  0.0063502276059424 F F F
  0.3677263807582136  0.5000000000000000  0.0063502276059424 F F F
  0.3703138789575249  0.0000000000000000  0.1548840244483287 F F F
  0.1296861210424751  0.1296861210424680  0.1548840244483287 F F F
  0.0000000000000000  0.3703138789575249  0.1548840244483287 F F F
  0.6994854716175922  0.5000000000000000  0.0796368952856099 F F F
  0.1305423226494113  0.1294740720570431  0.3077245145527101 T T T
  0.3722028801124324  0.0012727132471326  0.3033089632188108 T T T
  0.1979702334414313  0.0029560045422556  0.2300519889704020 T T T
  0.3005145283824078  0.3005145283824078  0.0796368952856099 F F F
  0.0000000000000000  0.1994854716175922  0.0796368952856099 F F F
  0.0000000000000142  0.3677263807581994  0.0063502276059424 F F F
  0.1322736192418006  0.1322736192418006  0.0063502276059424 F F F
  0.3677263807581994  0.0000000000000000  0.0063502276059424 F F F
  0.0019329027982593  0.1964527265483795  0.2300519800764462 T T T
  0.0000294235427987  0.3707287711501621  0.3024699578880430 T T T
  0.0019857396271163  0.6999894515834697  0.2311214386550660 T T T
  0.3010051843657422  0.7990450274014194  0.2318688178533392 T T T
  0.1319283994302012  0.6316401338571467  0.3079021172804062 T T T
  0.0000000000000355  0.8703138789575320  0.1548840244483287 F F F
  0.1296861210424680  0.6296861210424680  0.1548840244483287 F F F
  0.3703138789575391  0.5000000000000000  0.1548840244483287 F F F
  0.0007291328533512  0.8684985526421087  0.3063033091042868 T T T
  0.1994854716176064  0.5000000000000000  0.0796368952856099 F F F
  0.7002875898062797  0.5007155669813557  0.2320687722888692 T T T
  0.8669436189583450  0.4980909512451959  0.3084212305669283 T T T
  0.2969460704060864  0.3010062065854271  0.2314582568401917 T T T
  0.8333333350000061  0.6666666650000010  0.0000000000000000 F F F
  0.6666666650000010  0.8333333349999990  0.0000000000000000 F F F
  0.8333333350000061  0.6666666650000010  0.1548840244483287 F F F
  0.4984713002901415  0.4993087645511238  0.2319509786744831 T T T
  0.8339962262366925  0.6669956390924696  0.3077555224521618 T T T
  0.6682166838384163  0.8339748860478764  0.3060777409749846 T T T
  0.5000000000000000  0.5000000000000000  0.0760717089948102 F F F
  0.5000000000000000  0.0000000000000000  0.0760717089948102 F F F
  0.1617971469366992  0.3305092426349177  0.3106492963062024 T T T
  0.3348137272099621  0.1659610915145464  0.3103287510149073 T T T
  0.0010610760933076  0.0006889700326767  0.2321150351219714 T T T
  0.3333333349999990  0.1666666650000010  0.1548840244483287 F F F
  0.1666666650000010  0.3333333349999990  0.0000000000000000 F F F
  0.3333333349999990  0.1666666650000010  0.0000000000000000 F F F
  0.0000000000000000  0.0000000000000000  0.0760717089948102 F F F
  0.1666666650000010  0.3333333349999990  0.1548840244483287 F F F
  0.1710095363380120  0.8378951380771511  0.3083992076340039 T T T
  0.3319346229927405  0.6647596089926608  0.3080367741203673 T T T
  0.6666666650000010  0.3333333349999990  0.1548840244483287 F F F
  0.9993894023192951  0.5010926395335531  0.2320343190445300 T T T
  0.1666666650000010  0.8333333349999990  0.0000000000000000 F F F
  0.3333333350000132  0.6666666650000010  0.0000000000000000 F F F
  0.0000000000000142  0.5000000000000000  0.0760717089948102 F F F
  0.1666666650000010  0.8333333349999990  0.1548840244483287 F F F
  0.6666666650000010  0.8333333349999990  0.1548840244483287 F F F
  0.6621988692695666  0.3336228590848762  0.3104780136927303 T T T
  0.8369061240392881  0.1703246655711155  0.3081566342776441 T T T
  0.5013266031390415  0.0007475864650601  0.2320175443018471 T T T
  0.8333333349999990  0.1666666650000010  0.1548840244483287 F F F
  0.6666666650000010  0.3333333349999990  0.0000000000000000 F F F
  0.8333333349999990  0.1666666650000010  0.0000000000000000 F F F
  0.3333333350000132  0.6666666650000010  0.1548840244483287 F F F
  0.0003432079651517  0.5486047321740841  0.3865072382138095 T T T
  0.5004152969706936  0.5455565758765601  0.3858762260688309 T T T
  0.5454450828741528  0.9998394612095254  0.3858369493577527 T T T
  0.9992818557750098  0.9982027735775318  0.3791988364630967 T T T
  0.5007766111041150  0.6395763099637648  0.4270190466768327 T T T
  0.5030573243397001  0.4573142498417866  0.4293761487493484 T T T
  0.6388527920994562  0.9993279991195294  0.4270895926047373 T T T
  0.4546540912720900  0.9977529334274990  0.4292324476285856 T T T
  0.0015606775871078  0.4592918008453424  0.4298203163606971 T T T
  0.0001572198382931  0.6423385311201031  0.4276171460712206 T T T
  0.9965083290911281  0.9971717964752855  0.5843426988191709 T T T
  0.0386154257390814  0.2460932591147369  0.4786483984525134 T T T
  0.9055625481351441  0.9772156627718118  0.5752856976366090 T T T
  0.0119356114130653  0.7703166178736467  0.5858211945338994 T T T
  0.9265995933641520  0.6899795126946486  0.5875428827853568 T T T
  0.0535761832428179  0.7631529192393245  0.5485739053407030 T T T
  0.9970252461781328  0.9129119468375819  0.5835194337872451 T T T
  0.7443416998470838  0.9508345800610698  0.5639435304498548 T T T
  0.7477240243852776  0.0312278416573903  0.5498444108499640 T T T
  0.6990687116196739  0.8861474527483608  0.5317804335918126 T T T
  0.1930141637704779  0.2360612565975799  0.6203543429095220 T T T
  0.2326350758386297  0.2863136052098270  0.5832904300196802 T T T
  0.1216300036417479  0.1489584724424446  0.6057788786093425 T T T
  0.0284973134597379  0.1851998435116755  0.4948293683523772 T T T
