Ni   P    H    O    H    O    H    O    H    O    H 
   1.00000000000000     
  11.7365814896693994   0.0000000000000000   0.0000000000000000
  -5.8682907448347201  10.1641777236399005   0.0000000000000000
   0.0000000000000000   0.0000000000000000  21.8470000000000013
Ni   P    H    O    H    O    H    O    H    O    H 
60  36  6  1  2  1  3  1  2  1  3  
Selective dynamics
Direct
  0.1994854716175922  0.0000000000000000  0.0796368952856099 F F F
  0.4983924198212639  0.3715147008981187  0.3041383591134992 T T T
  0.6994854716175922  0.0000000000000000  0.0796368952856099 F F F
  0.6321677339795116  0.6299584788796215  0.3077855458067472 T T T
  0.8024285315237534  0.8015005786611685  0.2323562248294092 T T T
  0.4977811675163765  0.6975193429779462  0.2324285654958951 T T T
  0.8677263807581995  0.5000000000000001  0.0063502276059424 F F F
  0.6322736192418006  0.6322736192418007  0.0063502276059424 F F F
  0.5000000000000001  0.8677263807581929  0.0063502276059424 F F F
  0.5000000000000853  0.6994854716175932  0.0796368952856099 F F F
  0.8005145283824079  0.8005145283824081  0.0796368952856099 F F F
  0.3662358477847059  0.4964514862957847  0.3087557173764071 T T T
  0.2013841081561427  0.5026062603114282  0.2322110386452743 T T T
  0.3005145283824079  0.8005145283824081  0.0796368952856099 F F F
  0.0000000000000499  0.6994854716175932  0.0796368952856099 F F F
  0.8703138789575320  0.0000000000000000  0.1548840244483287 F F F
  0.6296861210424680  0.1296861210424680  0.1548840244483287 F F F
  0.5000000000000000  0.3703138789575253  0.1548840244483287 F F F
  0.4975601691331168  0.8661843375135646  0.3081439151479494 T T T
  0.8703138789575320  0.5000000000000001  0.1548840244483287 F F F
  0.6296861210424680  0.6296861210424683  0.1548840244483287 F F F
  0.5000000000000854  0.8703138789575325  0.1548840244483287 F F F
  0.8639788280504022  0.0012607240881317  0.3070251586450928 T T T
  0.6994458032233803  0.0030470512398184  0.2318114481257669 T T T
  0.0000000000000001  0.8677263807581929  0.0063502276059424 F F F
  0.8005145283824078  0.3005145283824078  0.0796368952856099 F F F
  0.5000000000000000  0.3677263807581997  0.0063502276059424 F F F
  0.6322736192418077  0.1322736192418006  0.0063502276059424 F F F
  0.8677263807581994  0.0000000000000000  0.0063502276059424 F F F
  0.5043105677758316  0.1997106933921519  0.2304667663112182 T T T
  0.7954937581980001  0.3025006894569574  0.2323548494668232 T T T
  0.6296474909598052  0.1333646139294036  0.3084508666982292 T T T
  0.5000000000000000  0.1994854716175923  0.0796368952856099 F F F
  0.1322736192418006  0.6322736192418007  0.0063502276059424 F F F
  0.3677263807582353  0.5000000000000001  0.0063502276059424 F F F
  0.3703138789575248  0.0000000000000000  0.1548840244483287 F F F
  0.1296861210424751  0.1296861210424680  0.1548840244483287 F F F
  0.0000000000000001  0.3703138789575253  0.1548840244483287 F F F
  0.6994854716175922  0.5000000000000001  0.0796368952856099 F F F
  0.1365816856029005  0.1355016224821937  0.3085579976613240 T T T
  0.3723117378623005  0.0014501757719795  0.3032721622732850 T T T
  0.1973352005229596  0.0028290632108287  0.2308382033429919 T T T
  0.3005145283824078  0.3005145283824078  0.0796368952856099 F F F
  1.0000000000000000  0.1994854716175923  0.0796368952856099 F F F
  0.0000000000000143  0.3677263807581997  0.0063502276059424 F F F
  0.1322736192418006  0.1322736192418006  0.0063502276059424 F F F
  0.3677263807581994  0.0000000000000000  0.0063502276059424 F F F
  0.0016966048099818  0.1957650108501780  0.2307304570567555 T T T
  0.9992566918007791  0.3708354610044236  0.3025788852730912 T T T
  0.0020278716950930  0.6993832896446120  0.2319143214314519 T T T
  0.3007982022206528  0.7986536711689124  0.2322146413313815 T T T
  0.1319401586157961  0.6299274685333521  0.3084402816166081 T T T
  0.0000000000000499  0.8703138789575325  0.1548840244483287 F F F
  0.1296861210424680  0.6296861210424683  0.1548840244483287 F F F
  0.3703138789575606  0.5000000000000001  0.1548840244483287 F F F
  0.0016769059802351  0.8642142909753168  0.3074773074499890 T T T
  0.1994854716176213  0.5000000000000001  0.0796368952856099 F F F
  0.7003631724938043  0.5003715907688896  0.2323213360646337 T T T
  0.8666444798010174  0.4965950510933542  0.3090049289713495 T T T
  0.2980255309856059  0.3013738627815222  0.2317183570364812 T T T
  0.8333333350000061  0.6666666650000012  0.0000000000000000 F F F
  0.6666666650000010  0.8333333349999990  0.0000000000000000 F F F
  0.8333333350000061  0.6666666650000012  0.1548840244483287 F F F
  0.4989476060459906  0.4998569089105259  0.2319279089010629 T T T
  0.8333968815973209  0.6648303305437653  0.3066893539964104 T T T
  0.6656290100112153  0.8322082287508300  0.3050625617274028 T T T
  0.5000000000000000  0.5000000000000001  0.0760717089948102 F F F
  0.5000000000000000  0.0000000000000000  0.0760717089948102 F F F
  0.1621403714962991  0.3335123863397747  0.3093900592178996 T T T
  0.3389724139106775  0.1680646494678561  0.3101202968837479 T T T
  0.0013147013368247  0.0007297535954040  0.2328451659073569 T T T
  0.3333333349999990  0.1666666650000011  0.1548840244483287 F F F
  0.1666666650000010  0.3333333349999991  0.0000000000000000 F F F
  0.3333333349999990  0.1666666650000011  0.0000000000000000 F F F
  0.0000000000000000  0.0000000000000000  0.0760717089948102 F F F
  0.1666666650000010  0.3333333349999991  0.1548840244483287 F F F
  0.1730464918972440  0.8365123469844646  0.3078807395703992 T T T
  0.3322347487333689  0.6644596648798351  0.3077408943068543 T T T
  0.6666666650000010  0.3333333349999991  0.1548840244483287 F F F
  0.9991631731033780  0.5009656342737642  0.2319617797407467 T T T
  0.1666666650000011  0.8333333349999990  0.0000000000000000 F F F
  0.3333333350000345  0.6666666650000012  0.0000000000000000 F F F
  0.0000000000000222  0.5000000000000001  0.0760717089948102 F F F
  0.1666666650000011  0.8333333349999990  0.1548840244483287 F F F
  0.6666666650000010  0.8333333349999990  0.1548840244483287 F F F
  0.6612244541807963  0.3341809922128004  0.3105761988461264 T T T
  0.8349579031432042  0.1721873829137027  0.3075529374612729 T T T
  0.5010907115456279  0.0007201815313686  0.2319689246909319 T T T
  0.8333333349999988  0.1666666650000011  0.1548840244483287 F F F
  0.6666666650000010  0.3333333349999991  0.0000000000000000 F F F
  0.8333333349999988  0.1666666650000011  0.0000000000000000 F F F
  0.3333333350000345  0.6666666650000012  0.1548840244483287 F F F
  0.0001982278385218  0.5444914797111642  0.3867611808147320 T T T
  0.5000194070957384  0.5409517147371484  0.3861814444936033 T T T
  0.5419955417339638  0.9996722301073832  0.3859991097742107 T T T
  0.9982567051656045  0.9989590171414864  0.3745706934455960 T T T
  0.5022639118849801  0.6352237500351090  0.4285205821852147 T T T
  0.5012121488324157  0.4544141922065206  0.4315866941143094 T T T
  0.6358149812417029  0.0007215233654461  0.4282142882213208 T T T
  0.4537483008896387  0.9973432532391968  0.4314038756897922 T T T
  0.0017266430706096  0.4575579162847476  0.4318075254612619 T T T
  0.0006039387088017  0.6378016525535808  0.4290916028610403 T T T
  0.0195959509478904  0.0097414782506331  0.5769734341250675 T T T
  0.9908420522047222  0.9938404673045556  0.4400420502333748 T T T
  0.9210321491798701  0.0001319386572882  0.5701985202279355 T T T
  0.0018306815404302  0.7917233684304917  0.5949047681322187 T T T
  0.9254021550644110  0.7227207428788329  0.5733645351210864 T T T
  0.0784506685505487  0.7914535040268268  0.5775424135563790 T T T
  0.0116155670165632  0.9149659846734370  0.5836132658636403 T T T
  0.8018051141518552  0.9891192927875494  0.5662299871470970 T T T
  0.8079515716796615  0.0675410101394002  0.5473158645571519 T T T
  0.7432588826572801  0.9144234310060577  0.5403915636420006 T T T
  0.1863994225562342  0.2377403591098768  0.6544178232583028 T T T
  0.2321392539338300  0.3019009522595619  0.6221386255467416 T T T
  0.1273122079146566  0.1566784386470958  0.6322740517137962 T T T
  0.0753961373666912  0.0517990989630383  0.5411102543645916 T T T
