Ni  P  O  H  O  H  O  H  O  H 
 1.0000000000000000
    11.7365814896694367    0.0000000000000000    0.0000000000000000
    -5.8682907448347157   10.1641777236399449    0.0000000000000000
     0.0000000000000000    0.0000000000000000   21.8470000000000013
 Ni  P   O   H   O   H   O   H   O   H  
  60  36   1   1   1   3   1   2   1   2
Selective dynamics
Cartesian
  2.3412774936450105  0.0000000000000000  1.7398272513047195   F   F   F
  3.6979562837031121  3.7596505133227907  6.7041707154024399   T   T   T
  8.2095682384797311  0.0000000000000000  1.7398272513047195   F   F   F
  3.7000017454294647  6.4098285693668204  6.6955465751388221   T   T   T
  4.7046196803558686  8.1478151703156936  5.0426136201722302   T   T   T
  1.7694216507452611  7.1007514970856427  5.0448822722054940   T   T   T
  7.2499960060871977  5.0820888618199733  0.1387334225070236   F   F   F
  3.7103654279998115  6.4265414359427160  0.1387334225070236   F   F   F
  0.7762200555824956  8.8197251495171383  0.1387334225070236   F   F   F
  1.7635066255950800  7.1096946486253136  1.7398272513047195   F   F   F
  4.6976519980122164  8.1365719368346081  1.7398272513047195   F   F   F
  1.4017554856811529  5.0830727192362932  6.6955639107811420   T   T   T
 -0.6057942508291159  5.0824246752962017  5.0427683835479256   T   T   T
 -1.1706387468225041  8.1365719368346081  1.7398272513047195   F   F   F
 -4.1047841192396577  7.1096946486253136  1.7398272513047195   F   F   F
 10.2145097619753784  0.0000000000000000  3.3837512821226419   F   F   F
  6.6293266086817493  1.3181527825651267  3.3837512821226419   F   F   F
  3.6951812362644314  3.7639360792547754  3.3837512821226419   F   F   F
  0.7652668966746067  8.8396467502295746  6.6979571615365039   T   T   T
  7.2803643895580361  5.0820888618199733  3.3837512821226419   F   F   F
  3.6951812362643919  6.4002416443851002  3.3837512821226419   F   F   F
  0.7610358638473396  8.8460249410748251  3.3837512821226419   F   F   F
 10.2083504750052381  0.0019581268025551  6.7008698024984925   T   T   T
  8.1996132136600064  0.0001199939513122  5.0449477647133056   T   T   T
 -5.0920706892522265  8.8197251495171383  0.1387334225070236   F   F   F
  7.6317973704295747  3.0544830750146330  1.7398272513047195   F   F   F
  3.7103654279998199  3.7376362876972324  0.1387334225070236   F   F   F
  6.6445108004172520  1.3444525741227416  0.1387334225070236   F   F   F
 10.1841413785045365  0.0000000000000000  0.1387334225070236   F   F   F
  4.7026608389728795  2.0198865232844847  5.0461481674173774   T   T   T
  7.6348810743992495  3.0646999017009771  5.0457987481038433   T   T   T
  6.6328005818000539  1.3244603793874403  6.7005784703180833   T   T   T
  4.6976519980122156  2.0276057868053403  1.7398272513047195   F   F   F
 -2.1579253168349077  6.4265414359427160  0.1387334225070236   F   F   F
  1.3817052612525742  5.0820888618199733  0.1387334225070236   F   F   F
  4.3462190171405748  0.0000000000000000  3.3837512821226419   F   F   F
  0.7610358638471135  1.3181527825651267  3.3837512821226419   F   F   F
 -2.1731095085702878  3.7639360792547754  3.3837512821226419   F   F   F
  5.2754228660623816  5.0820888618199733  1.7398272513047195   F   F   F
  0.7644022550884987  1.3243155709261547  6.7024399022988810   T   T   T
  4.3401419342683694  0.0007420180205507  6.7012224797290925   T   T   T
  2.3314668116605914  0.0017614833796807  5.0459531344403796   T   T   T
  1.7635066255948606  3.0544830750146330  1.7398272513047195   F   F   F
 -1.1706387468225041  2.0276057868053403  1.7398272513047195   F   F   F
 -2.1579253168348895  3.7376362876972324  0.1387334225070236   F   F   F
  0.7762200555824502  1.3444525741227416  0.1387334225070236   F   F   F
  4.3158506336698181  0.0000000000000000  0.1387334225070236   F   F   F
 -1.1646829606730273  2.0199577729917344  5.0457708429059007   T   T   T
 -2.1708420802544435  3.7589445964412205  6.7012111656271935   T   T   T
 -4.1014745757222348  7.1004453070875142  5.0458358063848143   T   T   T
 -1.1657985695440289  8.1455697746081093  5.0454287640598148   T   T   T
 -2.1714969866112668  6.4064928758312538  6.7016433138026903   T   T   T
 -5.1072548809874831  8.8460249410748251  3.3837512821226419   F   F   F
 -2.1731095085703269  6.4002416443851002  3.3837512821226419   F   F   F
  1.4120736447233300  5.0820888618199733  3.3837512821226419   F   F   F
 -5.1032446619419503  8.8415174642194057  6.7010686743881696   T   T   T
 -0.5928678787723209  5.0820888618199733  1.7398272513047195   F   F   F
  5.2653254602393362  5.0810330277582079  5.0470207914684293   T   T   T
  7.2733770518056957  5.0824959516039465  6.7026200487757386   T   T   T
  1.7702619429637672  3.0625315903148733  5.0466919740339211   T   T   T
  5.8682907741762556  6.7761184654863440  0.0000000000000000   F   F   F
  2.9341453430759361  8.4701481199735724  0.0000000000000000   F   F   F
  5.8682907741762556  6.7761184654863440  3.3837512821226419   F   F   F
  2.9349202335281701  5.0812225591748259  5.0658298771108701   T   T   T
  5.8702823941815137  6.7778035022106655  6.7857574261711715   T   T   T
  2.9348385729803792  8.4733341950407794  6.7824585461716858   T   T   T
  2.9341453724173707  5.0820888618199733  1.6619386264096183   F   F   F
  5.8682907448347184  0.0000000000000000  1.6619386264096183   F   F   F
 -0.0021427583485359  3.3872787364675645  6.7841103964676339   T   T   T
  2.9341518824732020  1.6941215764151629  6.7871206600444882   T   T   T
  0.0006126388320321  0.0009621556622339  5.0654253338113540   T   T   T
  2.9341454017587973  1.6940296036663725  3.3837512821226419   F   F   F
 -0.0000000293414341  3.3880592581536009  0.0000000000000000   F   F   F
  2.9341454017587973  1.6940296036663725  0.0000000000000000   F   F   F
  0.0000000000000000  0.0000000000000000  1.6619386264096183   F   F   F
 -0.0000000293414341  3.3880592581536009  3.3837512821226419   F   F   F
 -2.9337691080076431  8.4713289655833748  6.7861982856043825   T   T   T
 -0.0027526087249870  6.7776353672355345  6.7824345918814224   T   T   T
  5.8682907154932860  3.3880592581536009  3.3837512821226419   F   F   F
 -2.9351718873792501  5.0824187287867257  5.0655606241471736   T   T   T
 -2.9341454017587916  8.4701481199735724  0.0000000000000000   F   F   F
  0.0000000293415516  6.7761184654863440  0.0000000000000000   F   F   F
 -2.9341453724173387  5.0820888618199733  1.6619386264096183   F   F   F
 -2.9341454017587916  8.4701481199735724  3.3837512821226419   F   F   F
  2.9341453430759361  8.4701481199735724  3.3837512821226419   F   F   F
  5.8686296735734524  3.3883785577038714  6.7873521914193304   T   T   T
  8.8020834901195695  1.6951035152275669  6.7861707579856052   T   T   T
  5.8678421726267338  0.0009706601169206  5.0649785788264410   T   T   T
  8.8024361465935126  1.6940296036663725  3.3837512821226419   F   F   F
  5.8682907154932860  3.3880592581536009  0.0000000000000000   F   F   F
  8.8024361465935126  1.6940296036663725  0.0000000000000000   F   F   F
  0.0000000293415516  6.7761184654863440  3.3837512821226419   F   F   F
 -2.9345888245086464  5.0820797162666969  8.2837710925208796   T   T   T
  2.9286943844431024  5.0914176200520451  8.2752001705597902   T   T   T
  5.8720635095624347 -0.0033256791852191  8.2805512768139078   T   T   T
 -0.0005070069728513 -0.0008452348307689  8.2832274792576737   T   T   T
  3.0324961926587579  5.1557509425998846  9.9611305502730083   T   T   T
  2.0664251014447452  4.9246930352832861  9.9749237636505637   T   T   T
  4.4387704587858368  2.8258213499427236 10.3387568556742426   T   T   T
  3.9678771026861832  2.2070679605855665 10.9266570036361177   T   T   T
  4.4811272051899476  2.3771448484478488  9.4758495256593420   T   T   T
  3.5192021706528838  4.3046829915206004 10.1258220208245202   T   T   T
  0.3549253618634336  4.5118349220990464 10.0457736468799439   T   T   T
 -0.2163211029376513  5.2378469438496804  9.7373159880349931   T   T   T
  0.1377285276382774  3.7498278441458113  9.4796300445100954   T   T   T
  3.8083108452555501  7.3436773562747577 11.3623019230635567   T   T   T
  4.0757819225052030  7.9910022284150362 10.6878895964786516   T   T   T
  3.5211532324073151  6.5385737336027523 10.8465340434729445   T   T   T
