Ni  P  H  O  H  O  H  O  H  O  H 
 1.0000000000000000
    11.7365814896693994    0.0000000000000000    0.0000000000000000
    -5.8682907448347201   10.1641777236399005    0.0000000000000000
     0.0000000000000000    0.0000000000000000   21.8470000000000013
 Ni  P   H   O   H   O   H   O   H   O   H  
  60  32   4   1   1   1   3   1   2   1   2
Selective dynamics
Cartesian
  2.3412774936450029  0.0000000000000000  1.7398272513047195   F   F   F
  3.6832231212252422  3.7851826153266952  6.6689516307365757   T   T   T
  8.2095682384797062  0.0000000000000000  1.7398272513047195   F   F   F
  3.6830160334262394  6.3783581207312601  6.6684475803421330   T   T   T
  4.6861849762453742  8.1157261061737724  5.0408279685302215   T   T   T
  1.7508900628654944  7.1295030518345506  5.0406831243370283   T   T   T
  7.2499960060871471  5.0820888618199511  0.1387334225070236   F   F   F
  3.7103654279997857  6.4265414359426885  0.1387334225070236   F   F   F
  0.7762200555824723  8.8197251495170974  0.1387334225070236   F   F   F
  1.7635066255955014  7.1096946486252834  1.7398272513047195   F   F   F
  4.6976519980121827  8.1365719368345726  1.7398272513047195   F   F   F
  1.4377354940091012  5.0816663365182873  6.6717318176089959   T   T   T
 -0.5680319658401899  5.0808843083518518  5.0412848893572271   T   T   T
 -1.1706387468225188  8.1365719368345726  1.7398272513047195   F   F   F
 -4.1047841192393673  7.1096946486252834  1.7398272513047195   F   F   F
 10.2145097619753464  0.0000000000000000  3.3837512821226396   F   F   F
  6.6293266086817253  1.3181527825651209  3.3837512821226396   F   F   F
  3.6951812362644119  3.7639360792547580  3.3837512821226396   F   F   F
  0.7488881531935527  8.8670848645834184  6.6676444300866349   T   T   T
  7.2803643895579855  5.0820888618199511  3.3837512821226396   F   F   F
  3.6951812362643652  6.4002416443850727  3.3837512821226396   F   F   F
  0.7610358638476787  8.8460249410747842  3.3837512821226396   F   F   F
  4.3713107330082677 10.1640686457670455  6.6704049442899223   T   T   T
  8.2341200877618537  0.0004324204855076  5.0409344988660658   T   T   T
 -5.0920706892522301  8.8197251495170974  0.1387334225070236   F   F   F
  7.6317973704295428  3.0544830750146197  1.7398272513047195   F   F   F
  3.7103654279997897  3.7376362876972165  0.1387334225070236   F   F   F
  6.6445108004172280  1.3444525741227356  0.1387334225070236   F   F   F
 10.1841413785045045  0.0000000000000000  0.1387334225070236   F   F   F
  4.6856854470413802  2.0483303372099981  5.0405976138077566   T   T   T
  7.6200079478740186  3.0328419981820618  5.0411923014782083   T   T   T
  6.6165770543155098  1.2959569004254983  6.6699393783623337   T   T   T
  4.6976519980121960  2.0276057868053314  1.7398272513047195   F   F   F
 -2.1579253168349153  6.4265414359426885  0.1387334225070236   F   F   F
  1.3817052612526963  5.0820888618199511  0.1387334225070236   F   F   F
  4.3462190171405606  0.0000000000000000  3.3837512821226396   F   F   F
  0.7610358638471083  1.3181527825651209  3.3837512821226396   F   F   F
 -2.1731095085702887  3.7639360792547580  3.3837512821226396   F   F   F
  5.2754228660623452  5.0820888618199511  1.7398272513047195   F   F   F
  0.7485768596083301  1.2969332825073601  6.6695628565992449   T   T   T
 -1.4973597590194530 10.1633902499510320  6.6674639934358835   T   T   T
 -3.5034970555582934 10.1633604815826555  5.0398816926536956   T   T   T
  1.7635066255948433  3.0544830750146197  1.7398272513047195   F   F   F
 -1.1706387468225050  2.0276057868053314  1.7398272513047195   F   F   F
 -2.1579253168347430  3.7376362876972165  0.1387334225070236   F   F   F
  0.7762200555824448  1.3444525741227356  0.1387334225070236   F   F   F
  4.3158506336698048  0.0000000000000000  0.1387334225070236   F   F   F
 10.5539335748522802  2.0483373143540247  5.0415015557736442   T   T   T
  9.5509588117806938  3.7853577372498384  6.6695841685283872   T   T   T
  7.6191731019041669  7.1310891392952520  5.0415268389591361   T   T   T
 -1.1823156735566500  8.1151658974321332  5.0402800055144805   T   T   T
 -2.1852303315477273  6.3783015531435714  6.6681657690525151   T   T   T
 -5.1072548809871900  8.8460249410747842  3.3837512821226396   F   F   F
 -2.1731095085703349  6.4002416443850727  3.3837512821226396   F   F   F
  1.4120736447234530  5.0820888618199511  3.3837512821226396   F   F   F
 -5.1199705414180139  8.8683578626898392  6.6711962661483417   T   T   T
 -0.5928678787721886  5.0820888618199511  1.7398272513047195   F   F   F
  5.2995447278563725  5.0819444789217618  5.0402491059480132   T   T   T
  7.3052882123864027  5.0819100844961982  6.6680191100024180   T   T   T
  1.7507505331435129  3.0341200300445652  5.0409529368646231   T   T   T
  5.8682907741762076  6.7761184654863147  0.0000000000000000   F   F   F
  2.9341453430759015  8.4701481199735351  0.0000000000000000   F   F   F
  5.8682907741762076  6.7761184654863147  3.3837512821226396   F   F   F
  2.9336573354689044  5.0819192227361656  5.0574199217486093   T   T   T
  5.8685185095046055  6.7764279042028601  6.7505902108416880   T   T   T
  2.9344732333335837  8.4698741250735594  6.7504212845032319   T   T   T
  2.9341453724173419  5.0820888618199511  1.6619386264096183   F   F   F
  5.8682907448346997  0.0000000000000000  1.6619386264096183   F   F   F
 -0.0002410666360683  3.3889063129222841  6.7499025619156567   T   T   T
  2.9348644902798853  1.6932168473888125  6.7467273381989585   T   T   T
 11.7365233550729577  0.0000939637408631  5.0579117603804331   T   T   T
  2.9341454017587831  1.6940296036663651  3.3837512821226396   F   F   F
 -0.0000000293414418  3.3880592581535862  0.0000000000000000   F   F   F
  2.9341454017587831  1.6940296036663651  0.0000000000000000   F   F   F
  0.0000000000000000  0.0000000000000000  1.6619386264096183   F   F   F
 -0.0000000293414418  3.3880592581535862  3.3837512821226396   F   F   F
 -2.9345877776470939  8.4696736000175754  6.7504542388828987   T   T   T
  0.0003097686904096  6.7755289359874968  6.7509160108983552   T   T   T
  5.8682907154932593  3.3880592581535862  3.3837512821226396   F   F   F
  8.8026859624843201  5.0816213260179781  5.0569197421781427   T   T   T
 -2.9341454017588013  8.4701481199735351  0.0000000000000000   F   F   F
  0.0000000293416730  6.7761184654863147  0.0000000000000000   F   F   F
 -2.9341453724171931  5.0820888618199511  1.6619386264096183   F   F   F
 -2.9341454017588013  8.4701481199735351  3.3837512821226396   F   F   F
  2.9341453430759015  8.4701481199735351  3.3837512821226396   F   F   F
  5.8685864064024695  3.3877159856185735  6.7510076908594439   T   T   T
  8.8021331362344188  1.6937523571494311  6.7513312589383441   T   T   T
  5.8687773725618673  0.0000856342589233  5.0566565548925233   T   T   T
  8.8024361465934806  1.6940296036663651  3.3837512821226396   F   F   F
  5.8682907154932593  3.3880592581535862  0.0000000000000000   F   F   F
  8.8024361465934806  1.6940296036663651  0.0000000000000000   F   F   F
  0.0000000293416730  6.7761184654863147  3.3837512821226396   F   F   F
  8.8019649895681820  5.0815836429115482  7.6472129149219086   T   T   T
  0.0000808657529078 10.1641369205475645  7.6469995978632292   T   T   T
  5.8674227062488784 10.1575864553836492  7.6493890890208363   T   T   T
  2.9349523170538534  5.0813945215162892  7.6491325948773010   T   T   T
 -0.2450730367047721  2.0382656369862544 10.9137913161079538   T   T   T
 10.5205079499027256  1.8325132195786866 10.9105093307049064   T   T   T
 -4.7127539316820739  9.8894600359814486 11.4243716110521056   T   T   T
 -5.2548088101208403  9.1522545579297194 11.7592525535185555   T   T   T
 -4.2706579595722260  9.5464424876526515 10.6276800052898714   T   T   T
  0.2212876052908954  1.1841267641030666 11.1112992028946902   T   T   T
  8.7884050773531364  1.5036467388301320 10.9013474107171700   T   T   T
  8.2633845833410042  2.2050831279070846 10.4764404281913173   T   T   T
  8.5572277300075683  0.6801176653159152 10.4361059283994067   T   T   T
  0.6193945698473783  4.3126156901402828 12.1269067265397847   T   T   T
  1.0759721650451846  4.8082653621483038 11.4261391573595734   T   T   T
  0.3084221991946174  3.4727592429960250 11.6876396549664037   T   T   T
