Ni   P    H    O    H    O    H    O    H    O    H 
   1.00000000000000     
  11.7365814896693994   0.0000000000000000   0.0000000000000000
  -5.8682907448347201  10.1641777236399005   0.0000000000000000
   0.0000000000000000   0.0000000000000000  21.8470000000000013
Ni   P    H    O    H    O    H    O    H    O    H 
60  36  5  1  2  1  3  1  2  1  3  
Selective dynamics
Direct
  0.1994854716175922  0.0000000000000000  0.0796368952856099 F F F
  0.4978490904629496  0.3704346206634739  0.3034426330052540 T T T
  0.6994854716175922  0.0000000000000000  0.0796368952856099 F F F
  0.6335145241411411  0.6319429509512489  0.3068529758154881 T T T
  0.8023559883977427  0.8016327855832373  0.2316989175246391 T T T
  0.4982356878416283  0.6979519066689406  0.2318740116183449 T T T
  0.8677263807581994  0.5000000000000000  0.0063502276059424 F F F
  0.6322736192418006  0.6322736192418006  0.0063502276059424 F F F
  0.5000000000000000  0.8677263807581923  0.0063502276059424 F F F
  0.5000000000001066  0.6994854716175922  0.0796368952856099 F F F
  0.8005145283824078  0.8005145283824078  0.0796368952856099 F F F
  0.3659465705662583  0.4966155847642284  0.3084866492951051 T T T
  0.2016783646159723  0.5038158353114568  0.2319871675957614 T T T
  0.3005145283824078  0.8005145283824078  0.0796368952856099 F F F
  0.0000000000000782  0.6994854716175922  0.0796368952856099 F F F
  0.8703138789575320  0.0000000000000000  0.1548840244483287 F F F
  0.6296861210424680  0.1296861210424680  0.1548840244483287 F F F
  0.5000000000000000  0.3703138789575249  0.1548840244483287 F F F
  0.4991254276505330  0.8662848743189642  0.3073576761687846 T T T
  0.8703138789575320  0.5000000000000000  0.1548840244483287 F F F
  0.6296861210424680  0.6296861210424680  0.1548840244483287 F F F
  0.5000000000001066  0.8703138789575320  0.1548840244483287 F F F
  0.8699725980241126  0.0019303345324246  0.3078438357882760 T T T
  0.7015540041999202  0.0042678247903325  0.2319247633772861 T T T
  0.0000000000000000  0.8677263807581923  0.0063502276059424 F F F
  0.8005145283824078  0.3005145283824078  0.0796368952856099 F F F
  0.5000000000000000  0.3677263807581994  0.0063502276059424 F F F
  0.6322736192418077  0.1322736192418006  0.0063502276059424 F F F
  0.8677263807581994  0.0000000000000000  0.0063502276059424 F F F
  0.5056479043919566  0.2000446921607164  0.2304535206804843 T T T
  0.7956726564592742  0.3031902887937150  0.2324553793775976 T T T
  0.6314100649750714  0.1335166110222445  0.3086079361187259 T T T
  0.5000000000000000  0.1994854716175922  0.0796368952856099 F F F
  0.1322736192418006  0.6322736192418006  0.0063502276059424 F F F
  0.3677263807582563  0.5000000000000000  0.0063502276059424 F F F
  0.3703138789575249  0.0000000000000000  0.1548840244483287 F F F
  0.1296861210424751  0.1296861210424680  0.1548840244483287 F F F
  0.0000000000000000  0.3703138789575249  0.1548840244483287 F F F
  0.6994854716175922  0.5000000000000000  0.0796368952856099 F F F
  0.1324737509244684  0.1314706751634418  0.3067522879140014 T T T
  0.3725752339991857  0.0019976012315368  0.3031292552473914 T T T
  0.1970455774532240  0.0014185138893410  0.2300250721278090 T T T
  0.3005145283824078  0.3005145283824078  0.0796368952856099 F F F
  0.0000000000000000  0.1994854716175922  0.0796368952856099 F F F
  0.0000000000000355  0.3677263807581994  0.0063502276059424 F F F
  0.1322736192418006  0.1322736192418006  0.0063502276059424 F F F
  0.3677263807581994  0.0000000000000000  0.0063502276059424 F F F
  0.0008786289308418  0.1958884879966050  0.2299126539035115 T T T
  0.0000401392637954  0.3711523541368962  0.3023279229806874 T T T
  0.0020621730084827  0.7010454411194544  0.2321676525211984 T T T
  0.3009448951013312  0.7995978233015109  0.2319718560289914 T T T
  0.1324185924324439  0.6321490531971463  0.3080648298286519 T T T
  0.0000000000000782  0.8703138789575320  0.1548840244483287 F F F
  0.1296861210424680  0.6296861210424680  0.1548840244483287 F F F
  0.3703138789575817  0.5000000000000000  0.1548840244483287 F F F
  0.0017860918243784  0.8698889250766086  0.3083095622187741 T T T
  0.1994854716176278  0.5000000000000000  0.0796368952856099 F F F
  0.7006805682606867  0.5009444961268912  0.2322994789977813 T T T
  0.8671277969059688  0.4983325440346107  0.3087950625309901 T T T
  0.2977974107446428  0.3017726570984465  0.2314037604343469 T T T
  0.8333333350000061  0.6666666650000010  0.0000000000000000 F F F
  0.6666666650000010  0.8333333349999990  0.0000000000000000 F F F
  0.8333333350000061  0.6666666650000010  0.1548840244483287 F F F
  0.4989133812711373  0.4998913365882345  0.2319720725752319 T T T
  0.8353570570343933  0.6679811326865348  0.3074730109091490 T T T
  0.6692340387963114  0.8352019093240841  0.3053150967106575 T T T
  0.5000000000000000  0.5000000000000000  0.0760717089948102 F F F
  0.5000000000000000  0.0000000000000000  0.0760717089948102 F F F
  0.1616802525980177  0.3311932538215459  0.3096423731262163 T T T
  0.3361708626344964  0.1671327756525400  0.3099235049680047 T T T
  0.0006822891824498  0.0001569305450531  0.2323692460337128 T T T
  0.3333333349999990  0.1666666650000010  0.1548840244483287 F F F
  0.1666666650000010  0.3333333349999990  0.0000000000000000 F F F
  0.3333333349999990  0.1666666650000010  0.0000000000000000 F F F
  0.0000000000000000  0.0000000000000000  0.0760717089948102 F F F
  0.1666666650000010  0.3333333349999990  0.1548840244483287 F F F
  0.1717078395084499  0.8387574886950659  0.3085169141127011 T T T
  0.3322297504609679  0.6652859353593144  0.3072226103255744 T T T
  0.6666666650000010  0.3333333349999990  0.1548840244483287 F F F
  0.9992550559570645  0.5016308798899303  0.2320690983140707 T T T
  0.1666666650000010  0.8333333349999990  0.0000000000000000 F F F
  0.3333333350000558  0.6666666650000010  0.0000000000000000 F F F
  0.0000000000000355  0.5000000000000000  0.0760717089948102 F F F
  0.1666666650000010  0.8333333349999990  0.1548840244483287 F F F
  0.6666666650000010  0.8333333349999990  0.1548840244483287 F F F
  0.6620262836538870  0.3344037147098646  0.3104500777528827 T T T
  0.8371217954221279  0.1712097151870040  0.3082752597630289 T T T
  0.5019081093840896  0.0012844327483847  0.2320848440654615 T T T
  0.8333333349999990  0.1666666650000010  0.1548840244483287 F F F
  0.6666666650000010  0.3333333349999990  0.0000000000000000 F F F
  0.8333333349999990  0.1666666650000010  0.0000000000000000 F F F
  0.3333333350000558  0.6666666650000010  0.1548840244483287 F F F
  0.0009568866637508  0.5476315412415715  0.3864993379248034 T T T
  0.5020567364713671  0.5515604622489363  0.3854457283208319 T T T
  0.5446795042506096  0.9983997830602576  0.3857852837956557 T T T
  0.0032391600295441  0.0038599111142688  0.3800824489065135 T T T
  0.5031845123897227  0.6481486667690746  0.4255541956512872 T T T
  0.6381255715908623  0.9979606428718597  0.4274758484703440 T T T
  0.4539491818574817  0.9923641176629090  0.4305744880479949 T T T
  0.0027967011691743  0.4600172508452474  0.4308498056548160 T T T
  0.0013235847731181  0.6411459759031430  0.4283488032145684 T T T
  0.3806461404052044  0.2344387101982903  0.4990397981504415 T T T
  0.5080132169712144  0.4698095404385398  0.4317547890143274 T T T
  0.2587674413070431  0.2059835755952122  0.4940601578050163 T T T
  0.3981191450497334  0.0660899551938527  0.5673952678223131 T T T
  0.3287742420460091  0.9772386134683515  0.5570508819107189 T T T
  0.4810943866094277  0.0683755239848978  0.5595443119858814 T T T
  0.3872770254789941  0.1649397783805853  0.5256318471563404 T T T
  0.1516987027424719  0.1819146435906447  0.4933092790398632 T T T
  0.1476286055117910  0.2625496706964938  0.4865806489743534 T T T
  0.1003596007319203  0.1178534554807484  0.4584932269163460 T T T
  0.5699019196068562  0.4765218163365361  0.5644678719115248 T T T
  0.6437033866642707  0.5282890647670868  0.5371744706859189 T T T
  0.5083482558202306  0.4002804728424039  0.5399348229588554 T T T
  0.4167255452154279  0.2325076472509480  0.4589680887441574 T T T
